*SPEF "ieee 1481-1999"
*DESIGN "UART16"
*DATE "15:19:00 Saturday October 03, 2026"
*VENDOR "The OpenROAD Project"
*PROGRAM "OpenROAD"
*VERSION "unknown"
*DESIGN_FLOW "NAME_SCOPE LOCAL" "PIN_CAP NONE"
*DIVIDER /
*DELIMITER :
*BUS_DELIMITER []
*T_UNIT 1 NS
*C_UNIT 1 PF
*R_UNIT 1 OHM
*L_UNIT 1 HENRY

*NAME_MAP
*1 _000_
*2 _001_
*3 _002_
*4 _003_
*5 _004_
*6 _005_
*7 _006_
*8 _007_
*9 _008_
*10 _009_
*11 _010_
*12 _011_
*13 _012_
*14 _013_
*15 _014_
*16 _015_
*17 _016_
*18 _017_
*19 _018_
*20 _019_
*21 _020_
*22 _021_
*23 _022_
*24 _023_
*25 _024_
*26 _025_
*27 _026_
*28 _027_
*29 _028_
*30 _029_
*31 _030_
*32 _031_
*33 _032_
*34 _033_
*35 _034_
*36 _035_
*37 _036_
*38 _037_
*39 _038_
*40 _039_
*41 _040_
*42 _041_
*43 _042_
*44 _043_
*45 _044_
*46 _045_
*47 _046_
*48 _047_
*49 _048_
*50 _049_
*51 _050_
*52 _051_
*53 _052_
*54 _053_
*55 _054_
*56 _055_
*57 _056_
*58 _057_
*59 _058_
*60 _059_
*61 _060_
*62 _061_
*63 _062_
*64 _063_
*65 _064_
*66 _065_
*67 _066_
*68 _067_
*69 _068_
*70 _069_
*71 _070_
*72 _071_
*73 _072_
*74 _073_
*75 _074_
*76 _075_
*77 _076_
*78 _077_
*79 _078_
*80 _079_
*81 _080_
*82 _081_
*83 _082_
*84 _083_
*86 _085_
*87 _086_
*89 _088_
*90 _089_
*91 _090_
*92 _091_
*93 _092_
*94 _093_
*95 _094_
*96 _095_
*97 _096_
*98 _097_
*99 _098_
*100 _099_
*102 _101_
*103 _102_
*104 _103_
*105 _104_
*106 _105_
*107 _106_
*108 _107_
*109 _108_
*110 _109_
*111 _110_
*112 _111_
*113 _112_
*114 _113_
*115 _114_
*116 _115_
*117 _116_
*118 _117_
*119 _118_
*120 _119_
*121 _120_
*123 _122_
*124 _123_
*125 _124_
*126 _125_
*127 _126_
*128 _127_
*129 _128_
*130 _129_
*131 _130_
*132 _131_
*134 _133_
*135 _134_
*137 _136_
*138 _137_
*139 _138_
*140 _139_
*141 _140_
*142 _141_
*143 _142_
*144 _143_
*145 _144_
*146 _145_
*147 _146_
*148 _147_
*149 _148_
*150 _149_
*151 _150_
*152 _151_
*153 _152_
*154 _153_
*155 _154_
*156 _155_
*157 _156_
*158 _157_
*159 _158_
*160 _159_
*161 _160_
*162 _161_
*163 _162_
*164 _163_
*165 _164_
*166 _165_
*167 _166_
*168 _167_
*169 _168_
*170 _169_
*171 _170_
*172 _171_
*173 _172_
*174 _173_
*175 _174_
*177 _176_
*178 _177_
*179 _178_
*180 _179_
*181 _180_
*182 _181_
*183 _182_
*184 _183_
*185 _184_
*186 _185_
*187 _186_
*188 _187_
*189 _188_
*190 _189_
*191 _190_
*192 _191_
*193 _192_
*194 _193_
*195 _194_
*196 _195_
*197 _196_
*198 _197_
*199 _198_
*200 _199_
*201 _200_
*202 _201_
*203 _202_
*204 _203_
*205 _204_
*206 _205_
*207 _206_
*208 _207_
*209 _208_
*210 _209_
*211 _210_
*212 _211_
*213 _212_
*214 _213_
*215 _214_
*216 _215_
*217 _216_
*218 _217_
*219 _218_
*220 _219_
*221 _220_
*222 _221_
*223 _222_
*224 _223_
*225 _224_
*226 _225_
*227 _226_
*228 _227_
*229 _228_
*230 _229_
*231 _230_
*232 _231_
*233 _232_
*234 _233_
*235 _234_
*236 _235_
*237 _236_
*238 _237_
*239 _238_
*240 _239_
*241 _240_
*242 _241_
*243 _242_
*244 _243_
*245 _244_
*246 _245_
*247 _246_
*248 _247_
*249 _248_
*250 _249_
*251 _250_
*252 _251_
*253 _252_
*254 _253_
*255 _254_
*256 _255_
*257 _256_
*258 _257_
*259 _258_
*260 _259_
*261 _260_
*262 _261_
*263 _262_
*264 _263_
*265 _264_
*266 _265_
*267 _266_
*268 _267_
*269 _268_
*270 _269_
*271 _270_
*272 _271_
*273 _272_
*274 _273_
*275 _274_
*276 _275_
*277 _276_
*278 _277_
*279 _278_
*280 _279_
*281 _280_
*282 _281_
*283 _282_
*284 _283_
*285 _284_
*394 addr[0]
*288 addr[1]
*289 addr[2]
*393 baudclk16
*291 clk
*403 clknet_0_clk
*406 clknet_1_0__leaf_clk
*407 clknet_1_1__leaf_clk
*392 dbusin[0]
*293 dbusin[10]
*294 dbusin[11]
*295 dbusin[12]
*296 dbusin[13]
*297 dbusin[14]
*298 dbusin[15]
*391 dbusin[1]
*390 dbusin[2]
*389 dbusin[3]
*388 dbusin[4]
*387 dbusin[5]
*176 dbusin[6]
*136 dbusin[7]
*306 dbusin[8]
*307 dbusin[9]
*88 dbusout[0]
*309 dbusout[10]
*310 dbusout[11]
*311 dbusout[12]
*312 dbusout[13]
*313 dbusout[14]
*314 dbusout[15]
*85 dbusout[1]
*396 dbusout[2]
*397 dbusout[3]
*398 dbusout[4]
*399 dbusout[5]
*400 dbusout[6]
*401 dbusout[7]
*322 dbusout[8]
*323 dbusout[9]
*292 net10
*299 net11
*300 net12
*301 net13
*302 net14
*303 net15
*304 net16
*305 net17
*350 net18
*360 net19
*361 net20
*308 net21
*315 net22
*316 net23
*317 net24
*318 net25
*319 net26
*320 net27
*321 net28
*362 net29
*404 net31
*405 net32
*287 net8
*290 net9
*324 ptos\.newd\[1\]
*325 ptos\.newd\[2\]
*326 ptos\.newd\[3\]
*327 ptos\.newd\[4\]
*328 ptos\.newd\[5\]
*329 ptos\.newd\[6\]
*330 ptos\.newd\[7\]
*331 ptos\.newd\[8\]
*332 ptos\.start
*333 ptos\.t_div16\[0\]
*334 ptos\.t_div16\[1\]
*335 ptos\.t_div16\[2\]
*336 ptos\.t_div16\[3\]
*337 ptos\.txframe\[0\]
*338 ptos\.txframe\[1\]
*339 ptos\.txframe\[2\]
*340 ptos\.txframe\[3\]
*341 ptos\.txshift\[0\]
*342 ptos\.txshift\[1\]
*343 ptos\.txshift\[2\]
*344 ptos\.txshift\[3\]
*345 ptos\.txshift\[4\]
*346 ptos\.txshift\[5\]
*347 ptos\.txshift\[6\]
*348 ptos\.txshift\[7\]
*349 ptos\.txshift\[8\]
*133 rwbar
*351 rxav
*352 rxhold\[0\]
*353 rxhold\[1\]
*354 rxhold\[2\]
*355 rxhold\[3\]
*356 rxhold\[4\]
*357 rxhold\[5\]
*358 rxhold\[6\]
*359 rxhold\[7\]
*122 sel
*101 serin
*402 serout
*363 stop\.dec
*364 stop\.dec_a
*365 stop\.dec_b
*366 stop\.endgap_counter\[0\]
*367 stop\.endgap_counter\[1\]
*368 stop\.endgap_counter\[2\]
*369 stop\.endgap_counter\[3\]
*370 stop\.phase\[0\]
*371 stop\.phase\[1\]
*372 stop\.phase\[2\]
*373 stop\.phase\[3\]
*374 stop\.rseq\[0\]
*375 stop\.rseq\[1\]
*376 stop\.rseq\[2\]
*377 stop\.rseq\[3\]
*378 stop\.running
*379 stop\.rxshift\[0\]
*380 stop\.rxshift\[1\]
*381 stop\.rxshift\[2\]
*382 stop\.rxshift\[3\]
*383 stop\.rxshift\[4\]
*384 stop\.rxshift\[5\]
*385 stop\.rxshift\[6\]
*386 stop\.rxshift\[7\]
*770 FILLER_0_1
*780 FILLER_0_101
*781 FILLER_0_105
*782 FILLER_0_109
*783 FILLER_0_141
*784 FILLER_0_173
*785 FILLER_0_181
*786 FILLER_0_185
*771 FILLER_0_33
*772 FILLER_0_49
*773 FILLER_0_57
*774 FILLER_0_61
*775 FILLER_0_63
*776 FILLER_0_66
*777 FILLER_0_82
*778 FILLER_0_90
*779 FILLER_0_93
*905 FILLER_10_1
*917 FILLER_10_114
*918 FILLER_10_118
*919 FILLER_10_122
*920 FILLER_10_130
*921 FILLER_10_142
*922 FILLER_10_157
*923 FILLER_10_172
*924 FILLER_10_178
*908 FILLER_10_18
*925 FILLER_10_182
*926 FILLER_10_184
*909 FILLER_10_23
*910 FILLER_10_29
*911 FILLER_10_33
*912 FILLER_10_37
*913 FILLER_10_43
*914 FILLER_10_45
*906 FILLER_10_5
*915 FILLER_10_50
*907 FILLER_10_7
*916 FILLER_10_82
*927 FILLER_11_1
*938 FILLER_11_120
*939 FILLER_11_128
*940 FILLER_11_132
*941 FILLER_11_150
*942 FILLER_11_158
*943 FILLER_11_162
*944 FILLER_11_166
*928 FILLER_11_22
*929 FILLER_11_26
*930 FILLER_11_28
*931 FILLER_11_46
*932 FILLER_11_50
*933 FILLER_11_52
*934 FILLER_11_70
*935 FILLER_11_87
*936 FILLER_11_91
*937 FILLER_11_99
*956 FILLER_12_108
*957 FILLER_12_112
*958 FILLER_12_120
*959 FILLER_12_124
*960 FILLER_12_129
*961 FILLER_12_131
*962 FILLER_12_134
*963 FILLER_12_141
*964 FILLER_12_146
*965 FILLER_12_165
*966 FILLER_12_173
*967 FILLER_12_178
*968 FILLER_12_183
*946 FILLER_12_36
*945 FILLER_12_4
*947 FILLER_12_52
*948 FILLER_12_56
*949 FILLER_12_58
*950 FILLER_12_72
*951 FILLER_12_74
*952 FILLER_12_79
*953 FILLER_12_83
*954 FILLER_12_89
*955 FILLER_12_92
*978 FILLER_13_119
*979 FILLER_13_137
*980 FILLER_13_141
*981 FILLER_13_169
*982 FILLER_13_173
*983 FILLER_13_178
*969 FILLER_13_18
*984 FILLER_13_186
*970 FILLER_13_41
*971 FILLER_13_46
*972 FILLER_13_51
*973 FILLER_13_57
*974 FILLER_13_59
*975 FILLER_13_77
*976 FILLER_13_79
*977 FILLER_13_97
*985 FILLER_14_1
*992 FILLER_14_102
*993 FILLER_14_118
*994 FILLER_14_131
*995 FILLER_14_139
*996 FILLER_14_143
*997 FILLER_14_151
*998 FILLER_14_159
*999 FILLER_14_163
*1000 FILLER_14_165
*1001 FILLER_14_169
*1002 FILLER_14_173
*1003 FILLER_14_181
*1004 FILLER_14_185
*988 FILLER_14_31
*989 FILLER_14_39
*990 FILLER_14_49
*986 FILLER_14_5
*987 FILLER_14_7
*991 FILLER_14_70
*1005 FILLER_15_1
*1014 FILLER_15_117
*1015 FILLER_15_165
*1016 FILLER_15_178
*1017 FILLER_15_180
*1006 FILLER_15_33
*1007 FILLER_15_53
*1008 FILLER_15_57
*1009 FILLER_15_63
*1010 FILLER_15_72
*1011 FILLER_15_82
*1012 FILLER_15_84
*1013 FILLER_15_92
*1018 FILLER_16_1
*1028 FILLER_16_100
*1029 FILLER_16_108
*1020 FILLER_16_13
*1030 FILLER_16_140
*1031 FILLER_16_147
*1021 FILLER_16_15
*1032 FILLER_16_153
*1033 FILLER_16_178
*1034 FILLER_16_180
*1022 FILLER_16_40
*1023 FILLER_16_44
*1024 FILLER_16_54
*1025 FILLER_16_58
*1026 FILLER_16_74
*1019 FILLER_16_9
*1027 FILLER_16_92
*1035 FILLER_17_1
*1046 FILLER_17_116
*1047 FILLER_17_121
*1048 FILLER_17_125
*1049 FILLER_17_146
*1050 FILLER_17_151
*1036 FILLER_17_17
*1051 FILLER_17_178
*1052 FILLER_17_186
*1037 FILLER_17_22
*1038 FILLER_17_28
*1039 FILLER_17_39
*1040 FILLER_17_45
*1041 FILLER_17_49
*1042 FILLER_17_56
*1043 FILLER_17_67
*1044 FILLER_17_83
*1045 FILLER_17_98
*1053 FILLER_18_1
*1061 FILLER_18_119
*1062 FILLER_18_127
*1063 FILLER_18_131
*1064 FILLER_18_136
*1065 FILLER_18_144
*1066 FILLER_18_176
*1067 FILLER_18_184
*1068 FILLER_18_186
*1054 FILLER_18_19
*1055 FILLER_18_21
*1056 FILLER_18_47
*1057 FILLER_18_51
*1058 FILLER_18_53
*1059 FILLER_18_75
*1060 FILLER_18_86
*1069 FILLER_19_1
*1078 FILLER_19_100
*1079 FILLER_19_108
*1080 FILLER_19_112
*1081 FILLER_19_125
*1071 FILLER_19_13
*1082 FILLER_19_130
*1083 FILLER_19_138
*1084 FILLER_19_148
*1085 FILLER_19_150
*1086 FILLER_19_181
*1087 FILLER_19_185
*1072 FILLER_19_31
*1073 FILLER_19_39
*1074 FILLER_19_43
*1075 FILLER_19_50
*1076 FILLER_19_66
*1070 FILLER_19_9
*1077 FILLER_19_92
*787 FILLER_1_1
*791 FILLER_1_101
*792 FILLER_1_119
*793 FILLER_1_134
*794 FILLER_1_138
*795 FILLER_1_157
*796 FILLER_1_173
*797 FILLER_1_181
*798 FILLER_1_185
*788 FILLER_1_33
*789 FILLER_1_65
*790 FILLER_1_97
*1088 FILLER_20_1
*1095 FILLER_20_156
*1096 FILLER_20_172
*1097 FILLER_20_180
*1098 FILLER_20_184
*1099 FILLER_20_186
*1090 FILLER_20_26
*1091 FILLER_20_45
*1092 FILLER_20_49
*1093 FILLER_20_81
*1094 FILLER_20_89
*1089 FILLER_20_9
*1100 FILLER_21_1
*1110 FILLER_21_103
*1111 FILLER_21_111
*1112 FILLER_21_115
*1113 FILLER_21_120
*1114 FILLER_21_122
*1115 FILLER_21_126
*1116 FILLER_21_134
*1117 FILLER_21_141
*1118 FILLER_21_151
*1119 FILLER_21_159
*1120 FILLER_21_186
*1102 FILLER_21_27
*1103 FILLER_21_31
*1104 FILLER_21_33
*1105 FILLER_21_36
*1106 FILLER_21_41
*1107 FILLER_21_59
*1108 FILLER_21_78
*1101 FILLER_21_9
*1109 FILLER_21_97
*1121 FILLER_22_1
*1129 FILLER_22_100
*1130 FILLER_22_126
*1131 FILLER_22_142
*1132 FILLER_22_144
*1133 FILLER_22_149
*1134 FILLER_22_181
*1135 FILLER_22_185
*1122 FILLER_22_33
*1123 FILLER_22_65
*1124 FILLER_22_69
*1125 FILLER_22_71
*1126 FILLER_22_79
*1127 FILLER_22_92
*1128 FILLER_22_98
*1136 FILLER_23_1
*1143 FILLER_23_118
*1144 FILLER_23_122
*1145 FILLER_23_126
*1146 FILLER_23_130
*1147 FILLER_23_132
*1148 FILLER_23_156
*1149 FILLER_23_172
*1150 FILLER_23_180
*1151 FILLER_23_184
*1152 FILLER_23_186
*1137 FILLER_23_33
*1138 FILLER_23_65
*1139 FILLER_23_81
*1140 FILLER_23_89
*1141 FILLER_23_91
*1142 FILLER_23_95
*1153 FILLER_24_1
*1162 FILLER_24_111
*1163 FILLER_24_116
*1164 FILLER_24_125
*1165 FILLER_24_139
*1166 FILLER_24_149
*1167 FILLER_24_159
*1168 FILLER_24_164
*1154 FILLER_24_17
*1169 FILLER_24_180
*1170 FILLER_24_184
*1171 FILLER_24_186
*1155 FILLER_24_25
*1156 FILLER_24_31
*1157 FILLER_24_47
*1158 FILLER_24_55
*1159 FILLER_24_59
*1160 FILLER_24_63
*1161 FILLER_24_95
*799 FILLER_2_1
*803 FILLER_2_105
*804 FILLER_2_115
*805 FILLER_2_155
*800 FILLER_2_33
*801 FILLER_2_65
*802 FILLER_2_97
*806 FILLER_3_1
*810 FILLER_3_105
*811 FILLER_3_109
*812 FILLER_3_116
*813 FILLER_3_118
*814 FILLER_3_135
*815 FILLER_3_167
*816 FILLER_3_183
*807 FILLER_3_33
*808 FILLER_3_65
*809 FILLER_3_97
*817 FILLER_4_1
*821 FILLER_4_128
*822 FILLER_4_150
*823 FILLER_4_152
*824 FILLER_4_170
*825 FILLER_4_178
*826 FILLER_4_186
*818 FILLER_4_33
*819 FILLER_4_65
*820 FILLER_4_97
*827 FILLER_5_1
*831 FILLER_5_118
*832 FILLER_5_134
*833 FILLER_5_136
*834 FILLER_5_140
*835 FILLER_5_156
*836 FILLER_5_159
*837 FILLER_5_175
*838 FILLER_5_183
*828 FILLER_5_33
*829 FILLER_5_65
*830 FILLER_5_97
*839 FILLER_6_1
*848 FILLER_6_117
*849 FILLER_6_122
*850 FILLER_6_126
*851 FILLER_6_128
*841 FILLER_6_14
*852 FILLER_6_146
*842 FILLER_6_17
*843 FILLER_6_21
*844 FILLER_6_23
*845 FILLER_6_34
*846 FILLER_6_66
*840 FILLER_6_9
*847 FILLER_6_98
*853 FILLER_7_1
*863 FILLER_7_102
*864 FILLER_7_125
*865 FILLER_7_144
*866 FILLER_7_148
*867 FILLER_7_171
*868 FILLER_7_183
*854 FILLER_7_20
*855 FILLER_7_22
*856 FILLER_7_27
*857 FILLER_7_38
*858 FILLER_7_43
*859 FILLER_7_54
*860 FILLER_7_58
*861 FILLER_7_66
*862 FILLER_7_94
*869 FILLER_8_1
*871 FILLER_8_11
*880 FILLER_8_116
*881 FILLER_8_118
*882 FILLER_8_126
*883 FILLER_8_142
*884 FILLER_8_150
*885 FILLER_8_152
*886 FILLER_8_156
*887 FILLER_8_164
*888 FILLER_8_168
*889 FILLER_8_175
*890 FILLER_8_183
*872 FILLER_8_26
*873 FILLER_8_30
*874 FILLER_8_38
*875 FILLER_8_42
*876 FILLER_8_48
*877 FILLER_8_66
*878 FILLER_8_70
*870 FILLER_8_9
*879 FILLER_8_98
*891 FILLER_9_1
*902 FILLER_9_132
*903 FILLER_9_153
*892 FILLER_9_17
*904 FILLER_9_171
*893 FILLER_9_21
*894 FILLER_9_34
*895 FILLER_9_38
*896 FILLER_9_41
*897 FILLER_9_45
*898 FILLER_9_50
*899 FILLER_9_82
*900 FILLER_9_90
*901 FILLER_9_97
*732 PHY_EDGE_ROW_0_Left_25
*632 PHY_EDGE_ROW_0_Right_0
*742 PHY_EDGE_ROW_10_Left_35
*717 PHY_EDGE_ROW_10_Right_10
*743 PHY_EDGE_ROW_11_Left_36
*718 PHY_EDGE_ROW_11_Right_11
*744 PHY_EDGE_ROW_12_Left_37
*719 PHY_EDGE_ROW_12_Right_12
*745 PHY_EDGE_ROW_13_Left_38
*720 PHY_EDGE_ROW_13_Right_13
*746 PHY_EDGE_ROW_14_Left_39
*721 PHY_EDGE_ROW_14_Right_14
*747 PHY_EDGE_ROW_15_Left_40
*722 PHY_EDGE_ROW_15_Right_15
*748 PHY_EDGE_ROW_16_Left_41
*723 PHY_EDGE_ROW_16_Right_16
*749 PHY_EDGE_ROW_17_Left_42
*724 PHY_EDGE_ROW_17_Right_17
*750 PHY_EDGE_ROW_18_Left_43
*725 PHY_EDGE_ROW_18_Right_18
*751 PHY_EDGE_ROW_19_Left_44
*726 PHY_EDGE_ROW_19_Right_19
*733 PHY_EDGE_ROW_1_Left_26
*708 PHY_EDGE_ROW_1_Right_1
*752 PHY_EDGE_ROW_20_Left_45
*727 PHY_EDGE_ROW_20_Right_20
*753 PHY_EDGE_ROW_21_Left_46
*728 PHY_EDGE_ROW_21_Right_21
*754 PHY_EDGE_ROW_22_Left_47
*729 PHY_EDGE_ROW_22_Right_22
*755 PHY_EDGE_ROW_23_Left_48
*730 PHY_EDGE_ROW_23_Right_23
*756 PHY_EDGE_ROW_24_Left_49
*731 PHY_EDGE_ROW_24_Right_24
*734 PHY_EDGE_ROW_2_Left_27
*709 PHY_EDGE_ROW_2_Right_2
*735 PHY_EDGE_ROW_3_Left_28
*710 PHY_EDGE_ROW_3_Right_3
*736 PHY_EDGE_ROW_4_Left_29
*711 PHY_EDGE_ROW_4_Right_4
*737 PHY_EDGE_ROW_5_Left_30
*712 PHY_EDGE_ROW_5_Right_5
*738 PHY_EDGE_ROW_6_Left_31
*713 PHY_EDGE_ROW_6_Right_6
*739 PHY_EDGE_ROW_7_Left_32
*714 PHY_EDGE_ROW_7_Right_7
*740 PHY_EDGE_ROW_8_Left_33
*715 PHY_EDGE_ROW_8_Right_8
*741 PHY_EDGE_ROW_9_Left_34
*716 PHY_EDGE_ROW_9_Right_9
*408 _286_
*409 _287_
*411 _289_
*412 _290_
*414 _292_
*415 _293_
*416 _294_
*417 _295_
*418 _296_
*419 _297_
*420 _298_
*421 _299_
*422 _300_
*423 _301_
*424 _302_
*425 _303_
*426 _304_
*427 _305_
*428 _306_
*429 _307_
*430 _308_
*431 _309_
*433 _311_
*434 _312_
*435 _313_
*436 _314_
*437 _315_
*438 _316_
*439 _317_
*440 _318_
*441 _319_
*442 _320_
*443 _321_
*444 _322_
*445 _323_
*446 _324_
*447 _325_
*448 _326_
*449 _327_
*450 _328_
*451 _329_
*452 _330_
*453 _331_
*454 _332_
*455 _333_
*456 _334_
*457 _335_
*458 _336_
*459 _337_
*460 _338_
*461 _339_
*462 _340_
*464 _342_
*465 _343_
*466 _344_
*467 _345_
*468 _346_
*469 _347_
*470 _348_
*471 _349_
*472 _350_
*473 _351_
*474 _352_
*475 _353_
*476 _354_
*477 _355_
*478 _356_
*479 _357_
*480 _358_
*482 _360_
*483 _361_
*485 _363_
*486 _364_
*487 _365_
*488 _366_
*489 _367_
*490 _368_
*491 _369_
*492 _370_
*493 _371_
*494 _372_
*495 _373_
*496 _374_
*497 _375_
*498 _376_
*499 _377_
*500 _378_
*501 _379_
*502 _380_
*503 _381_
*504 _382_
*505 _383_
*506 _384_
*507 _385_
*508 _386_
*509 _387_
*510 _388_
*511 _389_
*512 _390_
*513 _391_
*514 _392_
*515 _393_
*516 _394_
*517 _395_
*518 _396_
*519 _397_
*520 _398_
*521 _399_
*522 _400_
*523 _401_
*524 _402_
*525 _403_
*526 _404_
*527 _405_
*528 _406_
*529 _407_
*530 _408_
*531 _409_
*532 _410_
*533 _411_
*534 _412_
*535 _413_
*536 _414_
*537 _415_
*538 _416_
*539 _417_
*540 _418_
*541 _419_
*542 _420_
*543 _421_
*544 _422_
*546 _424_
*547 _425_
*548 _426_
*549 _427_
*550 _428_
*551 _429_
*552 _430_
*553 _431_
*554 _432_
*555 _433_
*556 _434_
*557 _435_
*558 _436_
*559 _437_
*560 _438_
*561 _439_
*562 _440_
*563 _441_
*564 _442_
*565 _443_
*566 _444_
*567 _445_
*568 _446_
*569 _447_
*570 _448_
*571 _449_
*572 _450_
*573 _451_
*574 _452_
*575 _453_
*576 _454_
*577 _455_
*578 _456_
*579 _457_
*580 _458_
*581 _459_
*582 _460_
*583 _461_
*584 _462_
*585 _463_
*586 _464_
*587 _465_
*588 _466_
*589 _467_
*590 _468_
*591 _469_
*592 _470_
*593 _471_
*594 _472_
*595 _473_
*596 _474_
*597 _475_
*598 _476_
*599 _477_
*600 _478_
*601 _479_
*602 _480_
*603 _481_
*604 _482_
*605 _483_
*606 _484_
*607 _485_
*608 _486_
*609 _487_
*610 _488_
*611 _489_
*612 _490_
*613 _491_
*614 _492_
*615 _493_
*616 _494_
*617 _495_
*618 _496_
*619 _497_
*620 _498_
*621 _499_
*622 _500_
*623 _501_
*624 _502_
*625 _503_
*626 _504_
*627 _505_
*628 _506_
*629 _507_
*630 _508_
*631 _509_
*700 _511__1
*701 _512__2
*702 _513__3
*703 _514__4
*704 _515__5
*705 _516__6
*706 _517__7
*707 _518__8
*764 clkbuf_0_clk
*767 clkbuf_1_0__f_clk
*768 clkbuf_1_1__f_clk
*769 clkload0
*639 input10
*638 input11
*637 input12
*636 input13
*635 input14
*634 input15
*633 input16
*545 input17
*484 input18
*481 input19
*463 input20
*432 input21
*640 input9
*413 output22
*410 output23
*757 output24
*758 output25
*759 output26
*760 output27
*761 output28
*762 output29
*763 output30
*765 place32
*766 place33
*641 ptos\.start\$_SDFFE_PP0P_
*642 ptos\.t_div16\[0\]\$_DFF_P_
*643 ptos\.t_div16\[1\]\$_DFF_P_
*644 ptos\.t_div16\[2\]\$_DFF_P_
*645 ptos\.t_div16\[3\]\$_DFF_P_
*646 ptos\.txframe\[0\]\$_SDFFCE_PP0P_
*647 ptos\.txframe\[1\]\$_SDFFCE_PP0P_
*648 ptos\.txframe\[2\]\$_SDFFCE_PP0P_
*649 ptos\.txframe\[3\]\$_SDFFCE_PP0P_
*650 ptos\.txhold\[0\]\$_DFFE_PP_
*651 ptos\.txhold\[1\]\$_DFFE_PP_
*652 ptos\.txhold\[2\]\$_DFFE_PP_
*653 ptos\.txhold\[3\]\$_DFFE_PP_
*654 ptos\.txhold\[4\]\$_DFFE_PP_
*655 ptos\.txhold\[5\]\$_DFFE_PP_
*656 ptos\.txhold\[6\]\$_DFFE_PP_
*657 ptos\.txhold\[7\]\$_DFFE_PP_
*658 ptos\.txshift\[0\]\$_SDFF_PP0_
*659 ptos\.txshift\[1\]\$_DFF_P_
*660 ptos\.txshift\[2\]\$_DFF_P_
*661 ptos\.txshift\[3\]\$_DFF_P_
*662 ptos\.txshift\[4\]\$_DFF_P_
*663 ptos\.txshift\[5\]\$_DFF_P_
*664 ptos\.txshift\[6\]\$_DFF_P_
*665 ptos\.txshift\[7\]\$_DFF_P_
*666 ptos\.txshift\[8\]\$_SDFF_PN1_
*667 stop\.dec\$_DFF_P_
*668 stop\.dec_a\$_DFF_P_
*669 stop\.dec_b\$_DFF_P_
*670 stop\.endgap_counter\[0\]\$_SDFFCE_PP1P_
*671 stop\.endgap_counter\[1\]\$_SDFFCE_PP0P_
*672 stop\.endgap_counter\[2\]\$_SDFFCE_PP1P_
*673 stop\.endgap_counter\[3\]\$_SDFFCE_PP0P_
*674 stop\.pardata\[0\]\$_DFFE_PP_
*675 stop\.pardata\[1\]\$_DFFE_PP_
*676 stop\.pardata\[2\]\$_DFFE_PP_
*677 stop\.pardata\[3\]\$_DFFE_PP_
*678 stop\.pardata\[4\]\$_DFFE_PP_
*679 stop\.pardata\[5\]\$_DFFE_PP_
*680 stop\.pardata\[6\]\$_DFFE_PP_
*681 stop\.pardata\[7\]\$_DFFE_PP_
*682 stop\.phase\[0\]\$_SDFFCE_PN0P_
*683 stop\.phase\[1\]\$_SDFFCE_PN0P_
*684 stop\.phase\[2\]\$_SDFFCE_PN0P_
*685 stop\.phase\[3\]\$_SDFFCE_PN0P_
*686 stop\.rseq\[0\]\$_SDFF_PN0_
*687 stop\.rseq\[1\]\$_SDFF_PN0_
*688 stop\.rseq\[2\]\$_SDFF_PN0_
*689 stop\.rseq\[3\]\$_SDFF_PN0_
*690 stop\.running\$_SDFFE_PP0P_
*691 stop\.rxav\$_SDFFE_PP1P_
*692 stop\.rxshift\[0\]\$_DFFE_PP_
*693 stop\.rxshift\[1\]\$_DFFE_PP_
*694 stop\.rxshift\[2\]\$_DFFE_PP_
*695 stop\.rxshift\[3\]\$_DFFE_PP_
*696 stop\.rxshift\[4\]\$_DFFE_PP_
*697 stop\.rxshift\[5\]\$_DFFE_PP_
*698 stop\.rxshift\[6\]\$_DFFE_PP_
*699 stop\.rxshift\[7\]\$_DFFE_PP_

*PORTS
addr[0] I
addr[1] I
addr[2] I
baudclk16 I
clk I
dbusin[0] I
dbusin[10] I
dbusin[11] I
dbusin[12] I
dbusin[13] I
dbusin[14] I
dbusin[15] I
dbusin[1] I
dbusin[2] I
dbusin[3] I
dbusin[4] I
dbusin[5] I
dbusin[6] I
dbusin[7] I
dbusin[8] I
dbusin[9] I
dbusout[0] O
dbusout[10] O
dbusout[11] O
dbusout[12] O
dbusout[13] O
dbusout[14] O
dbusout[15] O
dbusout[1] O
dbusout[2] O
dbusout[3] O
dbusout[4] O
dbusout[5] O
dbusout[6] O
dbusout[7] O
dbusout[8] O
dbusout[9] O
rwbar I
sel I
serin I
serout O

*D_NET *1 0.0010434
*CONN
*I *549:A I *D XOR2_X1
*I *575:A1 I *D NAND3_X1
*I *546:A1 I *D NAND3_X1
*I *578:A1 I *D NAND2_X1
*I *571:A1 I *D NAND2_X1
*I *672:QN O *D DFF_X1
*CAP
1 *549:A 8.42569e-06
2 *575:A1 7.6248e-05
3 *546:A1 0
4 *578:A1 4.38369e-05
5 *571:A1 2.45523e-05
6 *672:QN 0.000128727
7 *1:47 0.000141352
8 *1:27 5.15045e-05
9 *1:16 4.73014e-05
10 *1:14 0.000200487
11 *549:A *549:B 5.50692e-06
12 *549:A *550:A1 0
13 *549:A *550:A2 7.16188e-07
14 *549:A *575:A2 2.43548e-06
15 *571:A1 *546:A3 2.75346e-06
16 *571:A1 *571:A2 1.21774e-06
17 *575:A1 *549:B 2.31008e-05
18 *575:A1 *571:A2 0
19 *575:A1 *575:A2 2.98502e-05
20 *578:A1 *546:A2 8.62199e-06
21 *578:A1 *546:A3 2.01083e-05
22 *578:A1 *573:A2 2.16072e-07
23 *578:A1 *25:8 2.75346e-06
24 *1:14 *550:A1 0
25 *1:14 *551:A2 0
26 *1:14 *552:A1 9.08971e-06
27 *1:14 *553:A2 1.32329e-05
28 *1:14 *570:A3 5.94167e-07
29 *1:14 *572:A 7.03713e-06
30 *1:14 *672:D 0
31 *1:14 *672:CK 0
32 *1:14 *23:24 0.000111004
33 *1:14 *177:10 1.26998e-05
34 *1:14 *178:8 7.16188e-07
35 *1:16 *573:A2 2.86475e-06
36 *1:16 *177:10 2.25658e-05
37 *1:27 *573:A2 1.83411e-06
38 *1:47 *550:A2 1.62377e-05
39 *1:47 *573:A1 0
40 *1:47 *23:24 6.03486e-06
41 *1:47 *177:10 1.97744e-05
*RES
1 *672:QN *1:14 32 
2 *1:14 *1:16 3.25 
3 *1:16 *571:A1 8.53572 
4 *1:16 *1:27 1.25 
5 *1:27 *578:A1 10.6786 
6 *1:27 *546:A1 5 
7 *1:14 *1:47 17.0357 
8 *1:47 *575:A1 14.6786 
9 *1:47 *549:A 6.25 
*END

*D_NET *2 0.000759807
*CONN
*I *577:A2 I *D NAND2_X1
*I *546:A2 I *D NAND3_X1
*I *579:A2 I *D NAND2_X1
*I *673:QN O *D DFF_X1
*CAP
1 *577:A2 0
2 *546:A2 6.61023e-05
3 *579:A2 0
4 *673:QN 8.25671e-05
5 *2:18 0.000125561
6 *2:12 0.000142025
7 *546:A2 *573:A1 7.00346e-05
8 *546:A2 *573:A2 2.39679e-06
9 *546:A2 *574:A 2.61469e-06
10 *546:A2 *579:A1 4.9678e-06
11 *546:A2 *582:A2 0
12 *546:A2 *198:10 0
13 *2:12 *577:A1 8.43215e-07
14 *2:12 *581:A1 3.40234e-06
15 *2:12 *582:A2 6.82202e-07
16 *2:12 *673:D 1.21774e-06
17 *2:12 *673:CK 2.2331e-05
18 *2:12 *197:8 0
19 *2:12 *405:92 1.02238e-05
20 *2:18 *576:A2 4.26902e-05
21 *2:18 *577:A1 3.15734e-05
22 *2:18 *579:A1 1.07633e-05
23 *2:18 *581:A1 2.96955e-05
24 *2:18 *582:A2 3.30654e-05
25 *2:18 *198:10 6.84274e-05
26 *578:A1 *546:A2 8.62199e-06
*RES
1 *673:QN *2:12 24.4286 
2 *2:12 *2:18 20.4286 
3 *2:18 *579:A2 5 
4 *2:18 *546:A2 23.3929 
5 *2:12 *577:A2 5 
*END

*D_NET *3 0.000189221
*CONN
*I *644:D I *D DFF_X1
*I *408:Z O *D XOR2_X1
*CAP
1 *644:D 1.18551e-05
2 *408:Z 1.18551e-05
3 *644:D *335:8 8.27554e-05
4 *644:D *405:118 8.27554e-05
*RES
1 *408:Z *644:D 24.3214 
*END

*D_NET *4 0.000108435
*CONN
*I *645:D I *D DFF_X1
*I *541:ZN O *D XNOR2_X1
*CAP
1 *645:D 4.42902e-05
2 *541:ZN 4.42902e-05
3 *645:D *541:A 0
4 *645:D *541:B 1.92163e-05
5 *645:D *645:CK 6.38328e-07
6 *645:D *336:12 0
*RES
1 *541:ZN *645:D 25.5714 
*END

*D_NET *5 9.07665e-05
*CONN
*I *597:A3 I *D NAND3_X1
*I *667:QN O *D DFF_X1
*CAP
1 *597:A3 1.70002e-05
2 *667:QN 1.70002e-05
3 *597:A3 *405:143 5.67661e-05
*RES
1 *667:QN *597:A3 22.9643 
*END

*D_NET *6 0.00045804
*CONN
*I *482:A I *D INV_X1
*I *597:A2 I *D NAND3_X1
*I *690:QN O *D DFF_X1
*CAP
1 *482:A 1.98195e-05
2 *597:A2 0.000134964
3 *690:QN 0
4 *6:4 0.000154784
5 *482:A *483:A2 3.88456e-06
6 *597:A2 *600:A1 1.80284e-05
7 *597:A2 *601:A 0
8 *597:A2 *672:CK 0
9 *597:A2 *690:D 2.28849e-05
10 *597:A2 *23:24 2.75346e-06
11 *597:A2 *175:14 5.01331e-06
12 *597:A2 *175:20 1.66067e-05
13 *597:A2 *378:14 7.93012e-05
14 *597:A2 *405:231 0
*RES
1 *690:QN *6:4 5 
2 *6:4 *597:A2 31 
3 *6:4 *482:A 7.28572 
*END

*D_NET *7 0.000419746
*CONN
*I *514:A I *D INV_X1
*I *685:QN O *D DFF_X1
*CAP
1 *514:A 0.000119861
2 *685:QN 0.000119861
3 *514:A *515:A2 2.70833e-06
4 *514:A *589:A1 0
5 *514:A *590:A1 7.16188e-07
6 *514:A *591:A2 0
7 *514:A *592:A1 3.51605e-05
8 *514:A *685:D 7.62806e-06
9 *514:A *685:CK 2.39679e-06
10 *514:A *156:8 3.69961e-05
11 *514:A *373:8 9.44188e-05
12 *514:A *373:23 0
*RES
1 *685:QN *514:A 36.1786 
*END

*D_NET *8 0.000386684
*CONN
*I *449:A2 I *D NOR2_X1
*I *649:QN O *D DFF_X1
*CAP
1 *449:A2 7.37147e-05
2 *649:QN 7.37147e-05
3 *449:A2 *450:A1 1.77822e-05
4 *449:A2 *564:B 0.000157358
5 *449:A2 *340:8 6.41153e-05
*RES
1 *649:QN *449:A2 31.7857 
*END

*D_NET *9 8.18609e-05
*CONN
*I *445:A2 I *D NAND2_X1
*I *641:QN O *D DFF_X1
*CAP
1 *445:A2 1.90696e-05
2 *641:QN 1.90696e-05
3 *445:A2 *87:10 0
4 *445:A2 *121:74 0
5 *445:A2 *406:24 4.37217e-05
*RES
1 *641:QN *445:A2 22.9643 
*END

*D_NET *10 0.000220013
*CONN
*I *479:A2 I *D NOR2_X2
*I *688:QN O *D DFF_X1
*CAP
1 *479:A2 0.000110007
2 *688:QN 0.000110007
3 *479:A2 *377:8 0
*RES
1 *688:QN *479:A2 21.0357 
*END

*D_NET *11 0.000112663
*CONN
*I *408:B I *D XOR2_X1
*I *621:CO O *D HA_X1
*CAP
1 *408:B 5.19866e-05
2 *621:CO 5.19866e-05
3 *408:B *408:A 7.72792e-06
4 *408:B *540:A1 9.62051e-07
5 *408:B *540:A2 0
*RES
1 *621:CO *408:B 15.1786 
*END

*D_NET *12 0.000399763
*CONN
*I *622:A I *D HA_X1
*I *458:A2 I *D NAND3_X1
*I *646:QN O *D DFF_X1
*CAP
1 *622:A 3.5665e-05
2 *458:A2 3.16829e-05
3 *646:QN 4.34104e-05
4 *12:8 0.000110758
5 *458:A2 *454:A2 2.94455e-05
6 *458:A2 *457:A1 2.37916e-06
7 *458:A2 *458:A1 1.80327e-05
8 *458:A2 *458:A3 2.72171e-06
9 *458:A2 *460:A2 1.955e-06
10 *458:A2 *110:12 4.12796e-06
11 *622:A *454:A2 1.29947e-05
12 *622:A *459:A2 0
13 *622:A *623:A 0
14 *622:A *110:12 2.89375e-05
15 *12:8 *454:A3 1.86809e-06
16 *12:8 *455:A 2.39679e-06
17 *12:8 *647:CK 9.11897e-09
18 *12:8 *110:27 1.26998e-05
19 *12:8 *303:22 5.58863e-05
20 *12:8 *336:23 4.79202e-06
*RES
1 *646:QN *12:8 15.75 
2 *12:8 *458:A2 14.3214 
3 *12:8 *622:A 14.3214 
*END

*D_NET *13 1.74261e-05
*CONN
*I *409:A I *D INV_X1
*I *622:CO O *D HA_X1
*CAP
1 *409:A 8.71307e-06
2 *622:CO 8.71307e-06
*RES
1 *622:CO *409:A 10.9286 
*END

*D_NET *14 9.89176e-05
*CONN
*I *454:A2 I *D NAND3_X1
*I *622:S O *D HA_X1
*CAP
1 *454:A2 1.67581e-05
2 *622:S 1.67581e-05
3 *454:A2 *454:A3 2.39679e-06
4 *454:A2 *455:A 7.19036e-06
5 *454:A2 *457:A1 1.11258e-05
6 *454:A2 *459:A2 0
7 *454:A2 *647:CK 2.24822e-06
8 *458:A2 *454:A2 2.94455e-05
9 *622:A *454:A2 1.29947e-05
*RES
1 *622:S *454:A2 23.0357 
*END

*D_NET *15 1.74261e-05
*CONN
*I *450:A2 I *D NAND2_X1
*I *623:CO O *D HA_X1
*CAP
1 *450:A2 8.71307e-06
2 *623:CO 8.71307e-06
*RES
1 *623:CO *450:A2 10.9286 
*END

*D_NET *16 0.000122711
*CONN
*I *452:B I *D XNOR2_X1
*I *624:CO O *D HA_X1
*CAP
1 *452:B 5.42899e-05
2 *624:CO 5.42899e-05
3 *452:B *452:A 7.72537e-06
4 *452:B *453:A1 0
5 *452:B *453:A2 2.23415e-06
6 *452:B *563:A1 1.27666e-06
7 *452:B *563:A3 0
8 *452:B *564:A 2.89521e-06
*RES
1 *624:CO *452:B 15.8571 
*END

*D_NET *17 0.000389396
*CONN
*I *503:A2 I *D NAND2_X1
*I *625:A I *D HA_X1
*I *686:QN O *D DFF_X1
*CAP
1 *503:A2 3.17626e-05
2 *625:A 5.63483e-05
3 *686:QN 3.38221e-05
4 *17:10 0.000121933
5 *503:A2 *503:A1 8.43215e-07
6 *503:A2 *686:D 3.6114e-06
7 *503:A2 *18:10 5.11574e-06
8 *503:A2 *405:69 3.82997e-06
9 *625:A *625:B 7.72792e-06
10 *625:A *686:D 2.58428e-06
11 *625:A *686:CK 7.72537e-06
12 *625:A *18:10 6.38784e-06
13 *625:A *374:6 0
14 *625:A *405:73 9.57948e-06
15 *17:10 *504:A 0
16 *17:10 *604:A 0
17 *17:10 *688:CK 8.14262e-05
18 *17:10 *378:89 0
19 *17:10 *405:255 1.66988e-05
*RES
1 *686:QN *17:10 20 
2 *17:10 *625:A 11.75 
3 *17:10 *503:A2 8.75 
*END

*D_NET *18 0.000551001
*CONN
*I *480:A2 I *D NAND2_X2
*I *593:A2 I *D NAND3_X1
*I *625:CO O *D HA_X1
*CAP
1 *480:A2 0
2 *593:A2 4.35993e-05
3 *625:CO 0.000150373
4 *18:10 0.000193972
5 *593:A2 *483:A1 0
6 *593:A2 *593:A1 9.41709e-05
7 *593:A2 *593:A3 8.26038e-06
8 *593:A2 *378:89 0
9 *593:A2 *405:69 1.40196e-06
10 *18:10 *503:A1 3.09143e-06
11 *18:10 *593:A1 1.77822e-05
12 *18:10 *604:A 0
13 *18:10 *686:CK 1.39839e-06
14 *18:10 *131:8 2.54476e-05
15 *18:10 *222:6 0
16 *18:10 *374:6 0
17 *18:10 *378:89 0
18 *18:10 *405:69 0
19 *503:A2 *18:10 5.11574e-06
20 *625:A *18:10 6.38784e-06
*RES
1 *625:CO *18:10 25.5357 
2 *18:10 *593:A2 16.4286 
3 *18:10 *480:A2 10 
*END

*D_NET *19 6.86175e-05
*CONN
*I *502:A2 I *D NOR2_X1
*I *625:S O *D HA_X1
*CAP
1 *502:A2 3.05868e-05
2 *625:S 3.05868e-05
3 *502:A2 *687:D 2.37093e-06
4 *502:A2 *149:10 2.83434e-06
5 *502:A2 *405:73 2.23871e-06
*RES
1 *625:S *502:A2 13.5357 
*END

*D_NET *20 0.000123062
*CONN
*I *497:A2 I *D NAND2_X1
*I *499:A2 I *D NOR2_X1
*I *626:CO O *D HA_X1
*CAP
1 *497:A2 1.93263e-05
2 *499:A2 0
3 *626:CO 5.32536e-06
4 *20:8 2.46517e-05
5 *497:A2 *602:A1 3.02351e-05
6 *497:A2 *376:21 2.57414e-05
7 *20:8 *602:A1 1.77822e-05
*RES
1 *626:CO *20:8 10.9286 
2 *20:8 *499:A2 10 
3 *20:8 *497:A2 12.9643 
*END

*D_NET *21 0.000816547
*CONN
*I *557:A2 I *D OR2_X1
*I *627:A I *D HA_X1
*I *628:A I *D HA_X1
*I *670:QN O *D DFF_X1
*CAP
1 *557:A2 0
2 *627:A 0
3 *628:A 0.000122399
4 *670:QN 7.20632e-05
5 *21:16 0.000241815
6 *21:10 0.00019148
7 *628:A *555:A 0
8 *628:A *571:A2 0
9 *628:A *575:A2 1.07733e-05
10 *628:A *575:A3 2.00206e-05
11 *628:A *627:B 2.13261e-05
12 *628:A *628:B 2.04476e-05
13 *628:A *22:10 1.81526e-05
14 *21:10 *558:A2 6.72327e-06
15 *21:10 *559:A1 3.48613e-06
16 *21:10 *559:A2 8.43215e-07
17 *21:10 *671:CK 0
18 *21:10 *179:12 0
19 *21:10 *366:10 2.55787e-06
20 *21:16 *554:A1 7.05546e-05
21 *21:16 *554:A2 0
22 *21:16 *559:A2 0
23 *21:16 *575:A2 9.03397e-06
24 *21:16 *627:B 4.87096e-06
*RES
1 *670:QN *21:10 13.9643 
2 *21:10 *21:16 14.8214 
3 *21:16 *628:A 30.9286 
4 *21:16 *627:A 5 
5 *21:10 *557:A2 5 
*END

*D_NET *22 0.000506188
*CONN
*I *627:B I *D HA_X1
*I *628:B I *D HA_X1
*I *575:A3 I *D NAND3_X1
*I *671:QN O *D DFF_X1
*CAP
1 *627:B 6.05362e-05
2 *628:B 1.84941e-05
3 *575:A3 4.14451e-05
4 *671:QN 0
5 *22:10 0.000136201
6 *22:4 0.000136798
7 *575:A3 *571:A2 0
8 *575:A3 *575:A2 2.75346e-06
9 *627:B *556:A 0
10 *627:B *556:B1 0
11 *628:B *571:A2 3.13574e-06
12 *22:10 *555:A 1.50849e-05
13 *22:10 *556:A 4.29713e-06
14 *22:10 *571:A2 2.62371e-06
15 *628:A *575:A3 2.00206e-05
16 *628:A *627:B 2.13261e-05
17 *628:A *628:B 2.04476e-05
18 *628:A *22:10 1.81526e-05
19 *21:16 *627:B 4.87096e-06
*RES
1 *671:QN *22:4 5 
2 *22:4 *22:10 14.0714 
3 *22:10 *575:A3 14.75 
4 *22:10 *628:B 12.9643 
5 *22:4 *627:B 12.3571 
*END

*D_NET *23 0.000970742
*CONN
*I *597:A1 I *D NAND3_X1
*I *549:B I *D XOR2_X1
*I *627:CO O *D HA_X1
*CAP
1 *597:A1 0
2 *549:B 0.000238841
3 *627:CO 1.43008e-05
4 *23:24 0.00022454
5 *549:B *575:A2 2.86077e-05
6 *23:24 *550:A2 4.18985e-05
7 *23:24 *553:A2 0
8 *23:24 *570:A3 4.95679e-05
9 *23:24 *572:A 2.55787e-06
10 *23:24 *573:A1 0
11 *23:24 *598:A1 1.1194e-05
12 *23:24 *672:CK 0
13 *23:24 *175:20 0.00011798
14 *23:24 *177:10 6.78878e-05
15 *23:24 *178:10 0
16 *23:24 *178:48 0
17 *23:24 *368:6 2.49651e-05
18 *549:A *549:B 5.50692e-06
19 *575:A1 *549:B 2.31008e-05
20 *597:A2 *23:24 2.75346e-06
21 *1:14 *23:24 0.000111004
22 *1:47 *23:24 6.03486e-06
*RES
1 *627:CO *549:B 12.75 
2 *549:B *23:24 47.0357 
3 *23:24 *597:A1 5 
*END

*D_NET *24 4.41643e-05
*CONN
*I *554:A2 I *D OR2_X1
*I *627:S O *D HA_X1
*CAP
1 *554:A2 1.92566e-05
2 *627:S 1.92566e-05
3 *554:A2 *554:A1 0
4 *554:A2 *556:A 3.88456e-06
5 *554:A2 *556:B1 1.76665e-06
6 *21:16 *554:A2 0
*RES
1 *627:S *554:A2 12.2857 
*END

*D_NET *25 0.000218686
*CONN
*I *578:A2 I *D NAND2_X1
*I *546:A3 I *D NAND3_X1
*I *628:CO O *D HA_X1
*CAP
1 *578:A2 0
2 *546:A3 3.75498e-05
3 *628:CO 5.27964e-05
4 *25:8 9.03462e-05
5 *546:A3 *571:A2 1.07733e-05
6 *25:8 *571:A2 1.60494e-06
7 *25:8 *580:A3 0
8 *571:A1 *546:A3 2.75346e-06
9 *578:A1 *546:A3 2.01083e-05
10 *578:A1 *25:8 2.75346e-06
*RES
1 *628:CO *25:8 10.3571 
2 *25:8 *546:A3 10.6786 
3 *25:8 *578:A2 5 
*END

*D_NET *26 0.000434578
*CONN
*I *629:A I *D HA_X1
*I *494:A2 I *D NAND3_X1
*I *682:QN O *D DFF_X1
*CAP
1 *629:A 4.94549e-05
2 *494:A2 6.58027e-05
3 *682:QN 2.17985e-05
4 *26:8 0.000137056
5 *494:A2 *494:A1 1.46266e-05
6 *494:A2 *494:A3 6.92191e-05
7 *494:A2 *682:D 9.55059e-06
8 *494:A2 *682:CK 0
9 *494:A2 *135:10 2.16307e-05
10 *494:A2 *370:18 0
11 *629:A *491:A1 0
12 *629:A *494:A3 0
13 *629:A *682:CK 2.16072e-07
14 *629:A *370:51 1.32348e-05
15 *629:A *378:14 1.70233e-05
16 *629:A *378:44 6.37281e-06
17 *26:8 *682:CK 0
18 *26:8 *135:10 8.59171e-06
*RES
1 *682:QN *26:8 12.2857 
2 *26:8 *494:A2 19.75 
3 *26:8 *629:A 15.75 
*END

*D_NET *27 8.61357e-05
*CONN
*I *595:A3 I *D AND3_X1
*I *629:CO O *D HA_X1
*CAP
1 *595:A3 2.31201e-05
2 *629:CO 2.31201e-05
3 *595:A3 *515:A3 0
4 *595:A3 *595:A1 2.94455e-05
5 *595:A3 *135:8 0
6 *595:A3 *370:12 1.045e-05
*RES
1 *629:CO *595:A3 22.9643 
*END

*D_NET *28 8.72286e-05
*CONN
*I *491:A3 I *D NAND3_X1
*I *629:S O *D HA_X1
*CAP
1 *491:A3 3.08755e-05
2 *629:S 3.08755e-05
3 *491:A3 *683:D 0
4 *491:A3 *370:18 2.54776e-05
*RES
1 *629:S *491:A3 23.6429 
*END

*D_NET *29 7.29494e-05
*CONN
*I *515:A3 I *D NAND3_X2
*I *630:CO O *D HA_X1
*CAP
1 *515:A3 2.44773e-05
2 *630:CO 2.44773e-05
3 *515:A3 *590:A1 0
4 *515:A3 *590:A2 0
5 *515:A3 *140:8 6.21255e-06
6 *515:A3 *154:8 1.77822e-05
7 *595:A3 *515:A3 0
*RES
1 *630:CO *515:A3 22.9643 
*END

*D_NET *30 4.28951e-05
*CONN
*I *486:B I *D XNOR2_X1
*I *631:CO O *D HA_X1
*CAP
1 *486:B 2.14476e-05
2 *631:CO 2.14476e-05
3 *486:B *493:A2 0
4 *486:B *584:A 0
*RES
1 *631:CO *486:B 12.2857 
*END

*D_NET *31 0.000175413
*CONN
*I *648:D I *D DFF_X1
*I *453:ZN O *D NOR2_X1
*CAP
1 *648:D 5.65975e-05
2 *453:ZN 5.65975e-05
3 *648:D *339:8 5.11191e-06
4 *648:D *339:10 3.06715e-05
5 *648:D *339:12 2.64346e-05
*RES
1 *453:ZN *648:D 28.3929 
*END

*D_NET *32 0.000190049
*CONN
*I *647:D I *D DFF_X1
*I *457:ZN O *D NAND2_X1
*CAP
1 *647:D 6.68069e-05
2 *457:ZN 6.68069e-05
3 *647:D *647:CK 1.97671e-05
4 *647:D *303:22 2.55331e-06
5 *647:D *338:12 3.41146e-05
*RES
1 *457:ZN *647:D 19.1429 
*END

*D_NET *33 9.49901e-05
*CONN
*I *646:D I *D DFF_X1
*I *460:ZN O *D NAND2_X1
*CAP
1 *646:D 4.49253e-05
2 *460:ZN 4.49253e-05
3 *646:D *460:A1 4.50122e-06
4 *646:D *647:CK 0
5 *646:D *336:14 6.38328e-07
6 *646:D *336:23 0
*RES
1 *460:ZN *646:D 14.6786 
*END

*D_NET *34 0.00015056
*CONN
*I *656:D I *D DFF_X1
*I *466:ZN O *D OAI21_X1
*CAP
1 *656:D 6.54599e-05
2 *466:ZN 6.54599e-05
3 *656:D *466:A 1.21774e-06
4 *656:D *566:A1 1.82068e-05
5 *656:D *615:B2 0
6 *656:D *666:D 2.16072e-07
7 *656:D *121:22 0
*RES
1 *466:ZN *656:D 17.1071 
*END

*D_NET *35 0.000266077
*CONN
*I *655:D I *D DFF_X1
*I *468:ZN O *D OAI21_X1
*CAP
1 *655:D 9.12418e-05
2 *468:ZN 9.12418e-05
3 *655:D *468:B1 1.91954e-06
4 *655:D *655:CK 8.16741e-05
5 *655:D *335:8 0
*RES
1 *468:ZN *655:D 30.7857 
*END

*D_NET *36 0.000221338
*CONN
*I *654:D I *D DFF_X1
*I *470:ZN O *D OAI21_X1
*CAP
1 *654:D 7.94135e-05
2 *470:ZN 7.94135e-05
3 *654:D *419:B1 4.34968e-06
4 *654:D *470:A 1.20555e-05
5 *654:D *470:B1 7.72792e-06
6 *654:D *121:60 3.83783e-05
*RES
1 *470:ZN *654:D 28.75 
*END

*D_NET *37 0.000354774
*CONN
*I *653:D I *D DFF_X1
*I *472:ZN O *D OAI21_X1
*CAP
1 *653:D 0.000116771
2 *472:ZN 0.000116771
3 *653:D *422:B1 0
4 *653:D *653:CK 3.96981e-05
5 *653:D *121:14 9.24246e-06
6 *653:D *121:18 4.84017e-05
7 *653:D *406:62 7.19036e-06
8 *653:D *406:70 1.66988e-05
*RES
1 *472:ZN *653:D 33.5357 
*END

*D_NET *38 0.000155912
*CONN
*I *652:D I *D DFF_X1
*I *474:ZN O *D OAI21_X1
*CAP
1 *652:D 6.84659e-05
2 *474:ZN 6.84659e-05
3 *652:D *472:A 2.75346e-06
4 *652:D *474:B2 6.56185e-06
5 *652:D *611:B2 0
6 *652:D *652:CK 2.75346e-06
7 *652:D *121:10 6.91187e-06
*RES
1 *474:ZN *652:D 17.6429 
*END

*D_NET *39 0.00014129
*CONN
*I *651:D I *D DFF_X1
*I *476:ZN O *D OAI21_X1
*CAP
1 *651:D 5.40916e-05
2 *476:ZN 5.40916e-05
3 *651:D *475:A1 3.08586e-05
4 *651:D *476:A 2.24822e-06
5 *651:D *87:42 0
6 *651:D *87:51 0
*RES
1 *476:ZN *651:D 16.4286 
*END

*D_NET *40 0.000111803
*CONN
*I *650:D I *D DFF_X1
*I *478:ZN O *D OAI21_X1
*CAP
1 *650:D 5.04734e-05
2 *478:ZN 5.04734e-05
3 *650:D *567:A1 0
4 *650:D *650:CK 1.08561e-05
5 *650:D *87:19 0
6 *650:D *87:28 0
*RES
1 *478:ZN *650:D 15.25 
*END

*D_NET *41 8.4642e-05
*CONN
*I *684:D I *D DFF_X1
*I *490:ZN O *D NAND2_X1
*CAP
1 *684:D 4.0482e-05
2 *490:ZN 4.0482e-05
3 *684:D *490:A2 2.39679e-06
4 *684:D *683:CK 0
5 *684:D *405:23 1.28122e-06
*RES
1 *490:ZN *684:D 13.75 
*END

*D_NET *42 0.000316061
*CONN
*I *683:D I *D DFF_X1
*I *493:ZN O *D NAND2_X1
*CAP
1 *683:D 0.000134322
2 *493:ZN 0.000134322
3 *683:D *283:12 4.74172e-05
4 *491:A3 *683:D 0
*RES
1 *493:ZN *683:D 33.8214 
*END

*D_NET *43 0.000204313
*CONN
*I *682:D I *D DFF_X1
*I *496:ZN O *D NAND2_X1
*CAP
1 *682:D 5.40979e-05
2 *496:ZN 5.40979e-05
3 *682:D *494:A3 8.52851e-05
4 *682:D *682:CK 1.28122e-06
5 *494:A2 *682:D 9.55059e-06
*RES
1 *496:ZN *682:D 27.6071 
*END

*D_NET *44 0.000199045
*CONN
*I *688:D I *D DFF_X1
*I *501:ZN O *D NOR3_X1
*CAP
1 *688:D 8.8025e-05
2 *501:ZN 8.8025e-05
3 *688:D *501:A1 2.61827e-06
4 *688:D *501:A2 2.52965e-06
5 *688:D *501:A3 1.72084e-05
6 *688:D *602:A1 0
7 *688:D *688:CK 6.38328e-07
8 *688:D *222:6 0
9 *688:D *374:6 0
*RES
1 *501:ZN *688:D 29.2143 
*END

*D_NET *45 0.000110342
*CONN
*I *687:D I *D DFF_X1
*I *502:ZN O *D NOR2_X1
*CAP
1 *687:D 5.36663e-05
2 *502:ZN 5.36663e-05
3 *687:D *599:B2 0
4 *687:D *405:73 0
5 *687:D *405:77 6.38328e-07
6 *502:A2 *687:D 2.37093e-06
*RES
1 *502:ZN *687:D 15.5357 
*END

*D_NET *46 0.000120881
*CONN
*I *686:D I *D DFF_X1
*I *504:ZN O *D INV_X1
*CAP
1 *686:D 3.94423e-05
2 *504:ZN 3.94423e-05
3 *686:D *405:69 2.80752e-05
4 *686:D *405:73 7.72537e-06
5 *503:A2 *686:D 3.6114e-06
6 *625:A *686:D 2.58428e-06
*RES
1 *504:ZN *686:D 14.8571 
*END

*D_NET *47 0.000188332
*CONN
*I *698:D I *D DFF_X1
*I *507:ZN O *D OAI21_X1
*CAP
1 *698:D 6.57345e-05
2 *507:ZN 6.57345e-05
3 *698:D *698:CK 6.38328e-07
4 *698:D *132:49 5.62244e-05
5 *698:D *132:55 0
6 *698:D *132:108 0
7 *698:D *132:115 0
*RES
1 *507:ZN *698:D 27.6071 
*END

*D_NET *48 0.000352819
*CONN
*I *697:D I *D DFF_X1
*I *508:Z O *D MUX2_X1
*CAP
1 *697:D 8.33526e-05
2 *508:Z 8.33526e-05
3 *697:D *696:D 0
4 *697:D *132:115 1.60038e-06
5 *697:D *156:8 2.01369e-05
6 *697:D *384:10 2.31008e-05
7 *697:D *384:14 0
8 *697:D *405:49 2.16578e-05
9 *697:D *405:295 0.000119619
*RES
1 *508:Z *697:D 32.3214 
*END

*D_NET *49 0.000112874
*CONN
*I *696:D I *D DFF_X1
*I *509:Z O *D MUX2_X1
*CAP
1 *696:D 5.24696e-05
2 *509:Z 5.24696e-05
3 *696:D *156:16 7.93453e-06
4 *697:D *696:D 0
*RES
1 *509:Z *696:D 15.5357 
*END

*D_NET *50 6.7891e-05
*CONN
*I *695:D I *D DFF_X1
*I *510:Z O *D MUX2_X1
*CAP
1 *695:D 2.58461e-05
2 *510:Z 2.58461e-05
3 *695:D *382:14 1.61988e-05
*RES
1 *510:Z *695:D 23.6429 
*END

*D_NET *51 0.000114975
*CONN
*I *694:D I *D DFF_X1
*I *511:Z O *D MUX2_X1
*CAP
1 *694:D 4.62033e-05
2 *511:Z 4.62033e-05
3 *694:D *511:B 2.25683e-05
4 *694:D *132:70 0
5 *694:D *405:323 0
6 *694:D *405:334 0
*RES
1 *511:Z *694:D 14.6786 
*END

*D_NET *52 0.000132669
*CONN
*I *693:D I *D DFF_X1
*I *512:Z O *D MUX2_X1
*CAP
1 *693:D 2.24353e-05
2 *512:Z 2.24353e-05
3 *693:D *512:B 2.67697e-05
4 *693:D *513:S 5.62244e-05
5 *693:D *380:12 4.80378e-06
*RES
1 *512:Z *693:D 24.3214 
*END

*D_NET *53 0.000110342
*CONN
*I *692:D I *D DFF_X1
*I *513:Z O *D MUX2_X1
*CAP
1 *692:D 5.22962e-05
2 *513:Z 5.22962e-05
3 *692:D *692:CK 5.74951e-06
4 *692:D *405:334 0
*RES
1 *513:Z *692:D 15.5357 
*END

*D_NET *54 9.28854e-05
*CONN
*I *680:D I *D DFF_X1
*I *521:ZN O *D NAND2_X1
*CAP
1 *680:D 4.64427e-05
2 *521:ZN 4.64427e-05
3 *680:D *433:A1 0
4 *680:D *521:A2 0
5 *680:D *757:A 0
6 *680:D *758:A 0
*RES
1 *521:ZN *680:D 14.8929 
*END

*D_NET *55 0.000177279
*CONN
*I *679:D I *D DFF_X1
*I *524:ZN O *D NAND2_X1
*CAP
1 *679:D 4.32572e-05
2 *524:ZN 4.32572e-05
3 *679:D *521:A2 7.62294e-06
4 *679:D *524:A1 8.21795e-05
5 *679:D *524:A2 0
6 *679:D *679:CK 9.62051e-07
*RES
1 *524:ZN *679:D 26.25 
*END

*D_NET *56 9.36026e-05
*CONN
*I *678:D I *D DFF_X1
*I *527:ZN O *D NAND2_X1
*CAP
1 *678:D 4.68013e-05
2 *527:ZN 4.68013e-05
3 *678:D *527:A2 0
*RES
1 *527:ZN *678:D 14.8929 
*END

*D_NET *57 0.000100294
*CONN
*I *677:D I *D DFF_X1
*I *530:ZN O *D NAND2_X1
*CAP
1 *677:D 4.77463e-05
2 *530:ZN 4.77463e-05
3 *677:D *680:CK 4.80114e-06
*RES
1 *530:ZN *677:D 14.6786 
*END

*D_NET *58 0.000132396
*CONN
*I *676:D I *D DFF_X1
*I *533:ZN O *D NAND2_X1
*CAP
1 *676:D 6.38541e-05
2 *533:ZN 6.38541e-05
3 *676:D *533:A1 4.68749e-06
*RES
1 *533:ZN *676:D 16.9286 
*END

*D_NET *59 9.73691e-05
*CONN
*I *675:D I *D DFF_X1
*I *536:ZN O *D NAND2_X1
*CAP
1 *675:D 4.62285e-05
2 *536:ZN 4.62285e-05
3 *675:D *652:CK 0
4 *675:D *404:12 4.91213e-06
*RES
1 *536:ZN *675:D 14.8929 
*END

*D_NET *60 0.000120363
*CONN
*I *674:D I *D DFF_X1
*I *539:ZN O *D NAND2_X1
*CAP
1 *674:D 5.19806e-05
2 *539:ZN 5.19806e-05
3 *674:D *539:A1 1.64013e-05
*RES
1 *539:ZN *674:D 26.0714 
*END

*D_NET *61 0.000117429
*CONN
*I *672:D I *D DFF_X1
*I *553:ZN O *D NAND2_X1
*CAP
1 *672:D 5.02336e-05
2 *553:ZN 5.02336e-05
3 *672:D *553:A1 1.63235e-05
4 *672:D *672:CK 6.38328e-07
5 *1:14 *672:D 0
*RES
1 *553:ZN *672:D 15.3571 
*END

*D_NET *62 0.000165673
*CONN
*I *671:D I *D DFF_X1
*I *556:ZN O *D OAI21_X1
*CAP
1 *671:D 8.28364e-05
2 *556:ZN 8.28364e-05
3 *671:D *556:B1 0
4 *671:D *671:CK 0
*RES
1 *556:ZN *671:D 27.3929 
*END

*D_NET *63 0.000101862
*CONN
*I *670:D I *D DFF_X1
*I *560:ZN O *D NAND2_X1
*CAP
1 *670:D 2.75564e-05
2 *560:ZN 2.75564e-05
3 *670:D *671:CK 4.6749e-05
*RES
1 *560:ZN *670:D 13.75 
*END

*D_NET *64 9.4897e-05
*CONN
*I *641:D I *D DFF_X1
*I *562:ZN O *D INV_X1
*CAP
1 *641:D 4.58129e-05
2 *562:ZN 4.58129e-05
3 *641:D *468:B1 0
4 *641:D *561:B2 1.76665e-06
5 *641:D *562:A 8.66302e-07
6 *641:D *641:CK 6.38328e-07
7 *641:D *332:8 0
*RES
1 *562:ZN *641:D 14.6786 
*END

*D_NET *65 0.000154504
*CONN
*I *649:D I *D DFF_X1
*I *565:ZN O *D NOR2_X1
*CAP
1 *649:D 6.68797e-05
2 *565:ZN 6.68797e-05
3 *649:D *411:A2 1.89775e-05
4 *649:D *565:A1 1.76665e-06
*RES
1 *565:ZN *649:D 17.4286 
*END

*D_NET *66 0.000426185
*CONN
*I *666:D I *D DFF_X1
*I *566:ZN O *D OR2_X4
*CAP
1 *666:D 0.000170868
2 *566:ZN 0.000170868
3 *666:D *566:A1 6.07323e-06
4 *666:D *566:A2 0
5 *666:D *615:A 1.25431e-05
6 *666:D *656:CK 3.90891e-05
7 *666:D *87:61 1.16067e-05
8 *666:D *87:65 1.49198e-05
9 *656:D *666:D 2.16072e-07
*RES
1 *566:ZN *666:D 40.2857 
*END

*D_NET *67 0.000159167
*CONN
*I *658:D I *D DFF_X1
*I *568:ZN O *D INV_X1
*CAP
1 *658:D 7.14889e-05
2 *568:ZN 7.14889e-05
3 *658:D *568:A 2.32458e-06
4 *658:D *658:CK 3.25936e-06
5 *658:D *659:CK 9.83877e-06
6 *658:D *336:64 7.66675e-07
*RES
1 *568:ZN *658:D 27.8929 
*END

*D_NET *68 0.000344484
*CONN
*I *657:D I *D DFF_X1
*I *569:Z O *D MUX2_X1
*CAP
1 *657:D 9.70968e-05
2 *569:Z 9.70968e-05
3 *657:D *566:A2 0
4 *657:D *121:18 8.07518e-05
5 *657:D *305:18 2.87434e-05
6 *657:D *406:70 4.07947e-05
*RES
1 *569:Z *657:D 33.1429 
*END

*D_NET *69 0.000104803
*CONN
*I *673:D I *D DFF_X1
*I *582:ZN O *D NAND2_X1
*CAP
1 *673:D 4.88745e-05
2 *582:ZN 4.88745e-05
3 *673:D *576:A1 5.83614e-06
4 *673:D *581:A2 0
5 *673:D *582:A1 0
6 *673:D *197:8 0
7 *673:D *405:77 0
8 *2:12 *673:D 1.21774e-06
*RES
1 *582:ZN *673:D 15.5714 
*END

*D_NET *70 9.74708e-05
*CONN
*I *685:D I *D DFF_X1
*I *592:ZN O *D NAND2_X1
*CAP
1 *685:D 4.18848e-05
2 *592:ZN 4.18848e-05
3 *685:D *592:A1 0
4 *685:D *592:A2 3.19164e-07
5 *685:D *373:23 5.75407e-06
6 *514:A *685:D 7.62806e-06
*RES
1 *592:ZN *685:D 14.6786 
*END

*D_NET *71 0.00023088
*CONN
*I *690:D I *D DFF_X1
*I *601:ZN O *D INV_X1
*CAP
1 *690:D 6.28717e-05
2 *601:ZN 6.28717e-05
3 *690:D *690:CK 6.34148e-05
4 *690:D *175:14 1.43979e-05
5 *690:D *378:14 4.43868e-06
6 *690:D *405:231 0
7 *597:A2 *690:D 2.28849e-05
*RES
1 *601:ZN *690:D 28.3214 
*END

*D_NET *72 8.48729e-05
*CONN
*I *689:D I *D DFF_X1
*I *605:ZN O *D AOI21_X1
*CAP
1 *689:D 4.21173e-05
2 *605:ZN 4.21173e-05
3 *689:D *603:A 0
4 *689:D *689:CK 6.38328e-07
5 *689:D *377:8 0
*RES
1 *605:ZN *689:D 14.1786 
*END

*D_NET *73 0.000100702
*CONN
*I *699:D I *D DFF_X1
*I *606:ZN O *D OAI21_X1
*CAP
1 *699:D 4.36595e-05
2 *606:ZN 4.36595e-05
3 *699:D *606:B2 8.58686e-06
4 *699:D *405:63 4.79658e-06
*RES
1 *606:ZN *699:D 14.6786 
*END

*D_NET *74 0.000105775
*CONN
*I *681:D I *D DFF_X1
*I *609:ZN O *D NAND2_X1
*CAP
1 *681:D 3.20415e-05
2 *609:ZN 3.20415e-05
3 *681:D *607:A2 0
4 *681:D *157:101 4.10539e-05
5 *681:D *407:103 6.38328e-07
*RES
1 *609:ZN *681:D 14.25 
*END

*D_NET *75 0.000353948
*CONN
*I *691:D I *D DFF_X1
*I *612:ZN O *D NAND2_X1
*CAP
1 *691:D 6.5795e-05
2 *612:ZN 6.5795e-05
3 *691:D *612:A1 4.24423e-05
4 *691:D *287:47 0.000179916
5 *691:D *353:8 0
6 *691:D *407:23 0
7 *691:D *407:36 0
*RES
1 *612:ZN *691:D 29.75 
*END

*D_NET *76 0.000292449
*CONN
*I *659:D I *D DFF_X1
*I *431:ZN O *D OAI21_X2
*CAP
1 *659:D 0.000105033
2 *431:ZN 0.000105033
3 *659:D *659:CK 2.75346e-06
4 *659:D *87:10 6.95952e-06
5 *659:D *121:74 4.48316e-05
6 *659:D *121:101 2.78386e-05
*RES
1 *431:ZN *659:D 32.4643 
*END

*D_NET *77 0.000268885
*CONN
*I *660:D I *D DFF_X1
*I *428:ZN O *D OAI21_X2
*CAP
1 *660:D 9.30062e-05
2 *428:ZN 9.30062e-05
3 *660:D *428:A 1.37673e-05
4 *660:D *469:A2 0
5 *660:D *660:CK 7.98822e-06
6 *660:D *87:35 5.01029e-05
7 *660:D *87:42 1.10138e-05
*RES
1 *428:ZN *660:D 31.4286 
*END

*D_NET *78 0.000386869
*CONN
*I *661:D I *D DFF_X1
*I *425:ZN O *D OAI21_X2
*CAP
1 *661:D 9.54897e-05
2 *425:ZN 9.54897e-05
3 *661:D *446:B1 4.93921e-05
4 *661:D *87:55 3.02372e-05
5 *661:D *87:57 0.000116261
*RES
1 *425:ZN *661:D 32.4643 
*END

*D_NET *79 0.000161998
*CONN
*I *662:D I *D DFF_X1
*I *422:ZN O *D OAI21_X2
*CAP
1 *662:D 4.25826e-05
2 *422:ZN 4.25826e-05
3 *662:D *422:A 5.06354e-05
4 *662:D *121:22 0
5 *662:D *406:62 2.6197e-05
*RES
1 *422:ZN *662:D 16.6786 
*END

*D_NET *80 0.000120453
*CONN
*I *663:D I *D DFF_X1
*I *419:ZN O *D OAI21_X2
*CAP
1 *663:D 5.0942e-05
2 *419:ZN 5.0942e-05
3 *663:D *417:A1 1.34578e-05
4 *663:D *419:B2 4.79202e-06
5 *663:D *465:A 3.19164e-07
6 *663:D *121:52 0
*RES
1 *419:ZN *663:D 15.6786 
*END

*D_NET *81 0.000148476
*CONN
*I *664:D I *D DFF_X1
*I *416:ZN O *D OAI21_X2
*CAP
1 *664:D 3.13394e-05
2 *416:ZN 3.13394e-05
3 *664:D *416:A 4.65701e-05
4 *664:D *416:B2 3.92272e-05
*RES
1 *416:ZN *664:D 15.6786 
*END

*D_NET *82 0.000283946
*CONN
*I *665:D I *D DFF_X1
*I *615:ZN O *D OAI21_X2
*CAP
1 *665:D 8.73913e-05
2 *615:ZN 8.73913e-05
3 *665:D *615:A 1.37673e-05
4 *665:D *615:B1 2.14856e-06
5 *665:D *615:B2 1.91498e-06
6 *665:D *665:CK 6.48216e-07
7 *665:D *666:CK 5.24905e-05
8 *665:D *336:118 3.81944e-05
*RES
1 *615:ZN *665:D 30.75 
*END

*D_NET *83 0.000184182
*CONN
*I *667:D I *D DFF_X1
*I *618:ZN O *D AOI21_X1
*CAP
1 *667:D 3.34075e-05
2 *618:ZN 3.34075e-05
3 *667:D *617:A 4.77786e-06
4 *667:D *617:B2 1.72405e-05
5 *667:D *618:A 1.04975e-05
6 *667:D *618:B2 4.21607e-06
7 *667:D *405:151 8.06346e-05
*RES
1 *618:ZN *667:D 25.5714 
*END

*D_NET *84 0.000167505
*CONN
*I *411:A1 I *D NOR3_X4
*I *409:ZN O *D INV_X1
*CAP
1 *411:A1 5.56767e-05
2 *409:ZN 5.56767e-05
3 *411:A1 *110:10 2.01395e-05
4 *411:A1 *110:12 3.60121e-05
*RES
1 *409:ZN *411:A1 27.7143 
*END

*D_NET *86 0.000913821
*CONN
*I *613:A1 I *D OR2_X1
*I *448:A1 I *D NAND2_X1
*I *412:A1 I *D NAND2_X4
*I *445:A1 I *D NAND2_X1
*I *411:ZN O *D NOR3_X4
*CAP
1 *613:A1 0.000176045
2 *448:A1 0
3 *412:A1 0
4 *445:A1 8.26577e-05
5 *411:ZN 0.000217683
6 *86:14 0.000148481
7 *86:6 0.000107461
8 *445:A1 *121:74 6.86795e-05
9 *445:A1 *332:8 0
10 *613:A1 *613:A2 2.75346e-06
11 *613:A1 *658:CK 2.48248e-05
12 *613:A1 *336:44 0
13 *613:A1 *336:64 4.62359e-05
14 *86:6 *448:A2 1.21774e-06
15 *86:6 *561:A 0
16 *86:6 *110:10 2.75402e-05
17 *86:6 *336:44 0
18 *86:14 *448:A2 0
19 *86:14 *561:A 0
20 *86:14 *121:74 0
21 *86:14 *332:8 7.16188e-07
22 *86:14 *336:44 9.5257e-06
*RES
1 *411:ZN *86:6 9.75 
2 *86:6 *86:14 17.0357 
3 *86:14 *445:A1 24.3929 
4 *86:14 *412:A1 5 
5 *86:6 *448:A1 5 
6 *411:ZN *613:A1 40.5 
*END

*D_NET *87 0.00359025
*CONN
*I *425:B2 I *D OAI21_X2
*I *423:A1 I *D NAND2_X1
*I *422:B2 I *D OAI21_X2
*I *420:A1 I *D NAND2_X1
*I *419:B2 I *D OAI21_X2
*I *417:A1 I *D NAND2_X1
*I *416:B2 I *D OAI21_X2
*I *414:A1 I *D NAND2_X1
*I *566:A1 I *D OR2_X4
*I *614:A1 I *D NAND2_X1
*I *615:B2 I *D OAI21_X2
*I *426:A1 I *D NAND2_X1
*I *428:B2 I *D OAI21_X2
*I *429:A1 I *D NAND2_X1
*I *431:B2 I *D OAI21_X2
*I *567:A1 I *D NAND2_X1
*I *412:ZN O *D NAND2_X4
*CAP
1 *425:B2 6.95368e-06
2 *423:A1 1.53881e-05
3 *422:B2 4.24849e-05
4 *420:A1 0
5 *419:B2 3.15421e-05
6 *417:A1 3.75136e-05
7 *416:B2 7.68542e-05
8 *414:A1 4.35653e-06
9 *566:A1 5.03966e-05
10 *614:A1 1.6264e-05
11 *615:B2 3.82953e-05
12 *426:A1 1.47347e-05
13 *428:B2 0
14 *429:A1 0
15 *431:B2 0
16 *567:A1 1.74889e-05
17 *412:ZN 0.000153229
18 *87:108 0.000174354
19 *87:102 0.000170437
20 *87:100 0.000157401
21 *87:92 0.000116527
22 *87:65 8.21353e-05
23 *87:61 0.000224984
24 *87:59 0.000208524
25 *87:57 0.000145954
26 *87:55 0.000120975
27 *87:51 0.000126488
28 *87:42 0.000151518
29 *87:35 0.000138546
30 *87:28 0.000149816
31 *87:19 0.00010118
32 *87:10 0.000210196
33 *416:B2 *414:A2 7.16188e-07
34 *416:B2 *416:A 1.74918e-05
35 *416:B2 *664:CK 1.32323e-05
36 *416:B2 *336:114 3.66923e-05
37 *417:A1 *417:A2 1.21774e-06
38 *417:A1 *419:A 2.75346e-06
39 *417:A1 *406:16 0
40 *419:B2 *121:52 2.03885e-06
41 *419:B2 *406:16 4.4683e-06
42 *422:B2 *446:B1 2.17974e-05
43 *422:B2 *662:CK 1.87418e-05
44 *422:B2 *406:62 3.05089e-05
45 *423:A1 *425:A 2.75346e-06
46 *423:A1 *446:B1 0
47 *423:A1 *484:A 0
48 *425:B2 *484:A 2.83434e-06
49 *426:A1 *428:A 7.29164e-07
50 *566:A1 *656:CK 0
51 *615:B2 *615:A 0
52 *87:10 *431:B1 0
53 *87:10 *659:CK 6.12485e-06
54 *87:10 *121:74 4.62359e-05
55 *87:10 *121:101 0
56 *87:28 *429:A2 2.39679e-06
57 *87:28 *431:A 9.06043e-06
58 *87:28 *634:A 2.61469e-06
59 *87:28 *650:CK 0
60 *87:28 *121:116 4.15825e-06
61 *87:35 *429:A2 8.09419e-06
62 *87:35 *121:116 0
63 *87:42 *426:A2 6.38328e-07
64 *87:42 *428:A 9.62001e-06
65 *87:42 *475:A1 0
66 *87:42 *660:CK 0
67 *87:42 *121:116 0
68 *87:51 *426:A2 6.38784e-06
69 *87:51 *475:A1 0
70 *87:51 *475:A2 0
71 *87:51 *484:A 2.16072e-07
72 *87:51 *660:CK 0
73 *87:55 *425:B1 3.48838e-06
74 *87:57 *660:CK 0
75 *87:57 *336:161 0
76 *87:59 *420:A2 0
77 *87:61 *420:A2 0
78 *87:61 *121:35 0
79 *87:61 *304:12 0
80 *87:92 *420:A2 1.87369e-06
81 *87:92 *422:A 2.25658e-05
82 *87:92 *465:A 0
83 *87:92 *406:62 1.75824e-05
84 *87:100 *420:A2 2.75346e-06
85 *87:100 *121:52 5.60509e-05
86 *87:100 *336:144 1.58219e-06
87 *87:100 *336:157 6.71089e-06
88 *87:100 *406:62 1.23305e-05
89 *87:102 *336:144 1.54362e-05
90 *87:108 *414:A2 9.3409e-06
91 *87:108 *336:114 4.45934e-05
92 *87:108 *336:118 2.08098e-06
93 *87:108 *336:144 3.30244e-05
94 *445:A2 *87:10 0
95 *650:D *567:A1 0
96 *650:D *87:19 0
97 *650:D *87:28 0
98 *651:D *87:42 0
99 *651:D *87:51 0
100 *656:D *566:A1 1.82068e-05
101 *656:D *615:B2 0
102 *659:D *87:10 6.95952e-06
103 *660:D *87:35 5.01029e-05
104 *660:D *87:42 1.10138e-05
105 *661:D *87:55 3.02372e-05
106 *661:D *87:57 0.000116261
107 *663:D *417:A1 1.34578e-05
108 *663:D *419:B2 4.79202e-06
109 *664:D *416:B2 3.92272e-05
110 *665:D *615:B2 1.91498e-06
111 *666:D *566:A1 6.07323e-06
112 *666:D *87:61 1.16067e-05
113 *666:D *87:65 1.49198e-05
*RES
1 *412:ZN *87:10 32.2143 
2 *87:10 *567:A1 6.75 
3 *87:10 *87:19 3.75 
4 *87:19 *431:B2 5 
5 *87:19 *87:28 6.85715 
6 *87:28 *429:A1 5 
7 *87:28 *87:35 10.25 
8 *87:35 *428:B2 5 
9 *87:35 *87:42 5.75 
10 *87:42 *426:A1 6.60714 
11 *87:42 *87:51 8.75 
12 *87:51 *87:55 9.32143 
13 *87:55 *87:57 8.39286 
14 *87:57 *87:59 2.96429 
15 *87:59 *87:61 15.1786 
16 *87:61 *87:65 8.64286 
17 *87:65 *615:B2 8.75 
18 *87:65 *614:A1 6.75 
19 *87:61 *566:A1 16.25 
20 *87:59 *87:92 9.25 
21 *87:92 *87:100 15.1429 
22 *87:100 *87:102 4.32143 
23 *87:102 *87:108 17.6429 
24 *87:108 *414:A1 5.92857 
25 *87:108 *416:B2 15.9286 
26 *87:102 *417:A1 14.25 
27 *87:100 *419:B2 13.75 
28 *87:92 *420:A1 5 
29 *87:57 *422:B2 16.75 
30 *87:55 *423:A1 11.75 
31 *87:51 *425:B2 6.25 
*END

*D_NET *89 0.000268294
*CONN
*I *416:A I *D OAI21_X2
*I *414:ZN O *D NAND2_X1
*CAP
1 *416:A 0.000102116
2 *414:ZN 0.000102116
3 *416:A *416:B1 0
4 *416:A *336:12 0
5 *416:A *336:14 0
6 *416:B2 *416:A 1.74918e-05
7 *664:D *416:A 4.65701e-05
*RES
1 *414:ZN *416:A 22.7857 
*END

*D_NET *90 0.000221657
*CONN
*I *416:B1 I *D OAI21_X2
*I *468:B1 I *D OAI21_X1
*I *415:ZN O *D INV_X1
*CAP
1 *416:B1 4.24364e-05
2 *468:B1 6.48798e-05
3 *415:ZN 0.000107316
4 *416:B1 *415:A 0
5 *468:B1 *415:A 0
6 *468:B1 *467:A2 0
7 *468:B1 *468:A 5.10511e-06
8 *468:B1 *561:B2 0
9 *416:A *416:B1 0
10 *641:D *468:B1 0
11 *655:D *468:B1 1.91954e-06
*RES
1 *415:ZN *468:B1 16.9643 
2 *415:ZN *416:B1 14.1786 
*END

*D_NET *91 4.24195e-05
*CONN
*I *419:A I *D OAI21_X2
*I *417:ZN O *D NAND2_X1
*CAP
1 *419:A 1.68048e-05
2 *417:ZN 1.68048e-05
3 *419:A *417:A2 2.86475e-06
4 *419:A *419:B1 3.19164e-06
5 *417:A1 *419:A 2.75346e-06
*RES
1 *417:ZN *419:A 12.1786 
*END

*D_NET *92 0.000291604
*CONN
*I *470:B1 I *D OAI21_X1
*I *419:B1 I *D OAI21_X2
*I *418:ZN O *D INV_X1
*CAP
1 *470:B1 1.12618e-05
2 *419:B1 8.3056e-05
3 *418:ZN 2.41269e-05
4 *92:8 0.000118445
5 *419:B1 *417:A2 0
6 *419:B1 *403:19 8.43342e-06
7 *419:B1 *406:18 0
8 *470:B1 *470:A 1.82068e-05
9 *470:B1 *121:52 8.43215e-07
10 *470:B1 *121:60 4.30918e-06
11 *92:8 *403:19 7.65279e-06
12 *419:A *419:B1 3.19164e-06
13 *654:D *419:B1 4.34968e-06
14 *654:D *470:B1 7.72792e-06
*RES
1 *418:ZN *92:8 12.2857 
2 *92:8 *419:B1 18.1071 
3 *92:8 *470:B1 11.75 
*END

*D_NET *93 0.000206397
*CONN
*I *422:A I *D OAI21_X2
*I *420:ZN O *D NAND2_X1
*CAP
1 *422:A 6.49308e-05
2 *420:ZN 6.49308e-05
3 *422:A *465:A 0
4 *422:A *121:22 0
5 *422:A *406:62 3.33445e-06
6 *662:D *422:A 5.06354e-05
7 *87:92 *422:A 2.25658e-05
*RES
1 *420:ZN *422:A 18.25 
*END

*D_NET *94 0.000356233
*CONN
*I *472:B1 I *D OAI21_X1
*I *422:B1 I *D OAI21_X2
*I *421:ZN O *D INV_X1
*CAP
1 *472:B1 4.07313e-05
2 *422:B1 0.000130697
3 *421:ZN 0
4 *94:4 0.000171428
5 *422:B1 *446:B1 0
6 *472:B1 *421:A 1.86809e-06
7 *472:B1 *425:A 0
8 *472:B1 *471:A2 2.56243e-06
9 *472:B1 *472:A 1.21774e-06
10 *472:B1 *472:B2 7.72792e-06
11 *653:D *422:B1 0
*RES
1 *421:ZN *94:4 5 
2 *94:4 *422:B1 27.1429 
3 *94:4 *472:B1 9.78572 
*END

*D_NET *95 4.22894e-05
*CONN
*I *425:A I *D OAI21_X2
*I *423:ZN O *D NAND2_X1
*CAP
1 *425:A 1.9768e-05
2 *423:ZN 1.9768e-05
3 *425:A *484:A 0
4 *423:A1 *425:A 2.75346e-06
5 *472:B1 *425:A 0
*RES
1 *423:ZN *425:A 12.1786 
*END

*D_NET *96 0.000392463
*CONN
*I *474:B1 I *D OAI21_X1
*I *425:B1 I *D OAI21_X2
*I *424:ZN O *D INV_X1
*CAP
1 *474:B1 1.652e-05
2 *425:B1 0.000107131
3 *424:ZN 1.42429e-05
4 *96:10 0.000137894
5 *425:B1 *471:A2 0
6 *425:B1 *484:A 5.30588e-05
7 *425:B1 *635:A 0
8 *425:B1 *637:A 3.51536e-06
9 *474:B1 *471:A2 0
10 *474:B1 *474:A 1.85634e-05
11 *474:B1 *121:183 1.40196e-06
12 *96:10 *473:A1 1.61249e-06
13 *96:10 *474:A 3.07768e-05
14 *96:10 *635:A 0
15 *96:10 *121:12 7.66675e-07
16 *96:10 *305:18 3.49085e-06
17 *87:55 *425:B1 3.48838e-06
*RES
1 *424:ZN *96:10 17.2857 
2 *96:10 *425:B1 26.8929 
3 *96:10 *474:B1 7.25 
*END

*D_NET *97 0.000106194
*CONN
*I *428:A I *D OAI21_X2
*I *426:ZN O *D NAND2_X1
*CAP
1 *428:A 3.72246e-05
2 *426:ZN 3.72246e-05
3 *428:A *426:A2 0
4 *428:A *660:CK 7.62806e-06
5 *426:A1 *428:A 7.29164e-07
6 *660:D *428:A 1.37673e-05
7 *87:42 *428:A 9.62001e-06
*RES
1 *426:ZN *428:A 14.6786 
*END

*D_NET *98 0.000244408
*CONN
*I *476:B1 I *D OAI21_X1
*I *428:B1 I *D OAI21_X2
*I *427:ZN O *D INV_X1
*CAP
1 *476:B1 0
2 *428:B1 3.68714e-05
3 *427:ZN 6.80083e-05
4 *98:8 0.00010488
5 *428:B1 *475:A1 1.62377e-05
6 *428:B1 *406:101 1.20697e-05
7 *98:8 *475:A1 1.88334e-06
8 *98:8 *406:101 4.45767e-06
*RES
1 *427:ZN *98:8 17.0357 
2 *98:8 *428:B1 15 
3 *98:8 *476:B1 10 
*END

*D_NET *99 0.000119654
*CONN
*I *431:A I *D OAI21_X2
*I *429:ZN O *D NAND2_X1
*CAP
1 *431:A 5.52966e-05
2 *429:ZN 5.52966e-05
3 *431:A *567:A2 0
4 *87:28 *431:A 9.06043e-06
*RES
1 *429:ZN *431:A 15.8571 
*END

*D_NET *100 0.000369149
*CONN
*I *478:B1 I *D OAI21_X1
*I *431:B1 I *D OAI21_X2
*I *430:ZN O *D INV_X1
*CAP
1 *478:B1 0
2 *431:B1 3.33273e-05
3 *430:ZN 6.46473e-05
4 *100:8 9.79746e-05
5 *431:B1 *477:A1 2.57414e-05
6 *431:B1 *121:101 6.84295e-05
7 *100:8 *477:A1 5.38494e-05
8 *100:8 *477:A2 1.40436e-05
9 *100:8 *638:A 1.11357e-05
10 *87:10 *431:B1 0
*RES
1 *430:ZN *100:8 17.7143 
2 *100:8 *431:B1 15 
3 *100:8 *478:B1 10 
*END

*D_NET *102 0.00011184
*CONN
*I *434:A I *D INV_X1
*I *433:ZN O *D NAND2_X1
*CAP
1 *434:A 4.12351e-05
2 *433:ZN 4.12351e-05
3 *434:A dbusout[2] 1.58812e-07
4 *434:A *761:A 1.77822e-05
5 *434:A *287:12 1.1429e-05
*RES
1 *433:ZN *434:A 25 
*END

*D_NET *103 0.000113445
*CONN
*I *436:A I *D INV_X1
*I *435:ZN O *D NAND2_X1
*CAP
1 *436:A 4.5751e-05
2 *435:ZN 4.5751e-05
3 *436:A *438:A 1.03991e-06
4 *436:A *759:A 0
5 *436:A *760:A 2.16072e-07
6 *436:A *762:A 3.54695e-06
7 *436:A *157:101 0
8 *436:A *287:12 1.61913e-05
9 *436:A *287:16 9.49053e-07
*RES
1 *435:ZN *436:A 15.4286 
*END

*D_NET *104 9.53486e-05
*CONN
*I *438:A I *D INV_X1
*I *437:ZN O *D NAND2_X1
*CAP
1 *438:A 4.38793e-05
2 *437:ZN 4.38793e-05
3 *438:A *437:A2 2.16072e-07
4 *438:A *522:A1 2.39679e-06
5 *438:A *525:A2 0
6 *438:A *759:A 3.93732e-06
7 *438:A *760:A 0
8 *436:A *438:A 1.03991e-06
*RES
1 *437:ZN *438:A 14.9643 
*END

*D_NET *105 0.000125565
*CONN
*I *440:A I *D INV_X1
*I *439:ZN O *D NAND2_X1
*CAP
1 *440:A 3.52927e-05
2 *439:ZN 3.52927e-05
3 *440:A *439:A2 3.88456e-06
4 *440:A *441:A2 1.21774e-06
5 *440:A *442:A 7.82021e-06
6 *440:A *680:CK 4.2057e-05
7 *440:A *758:A 0
*RES
1 *439:ZN *440:A 15.4286 
*END

*D_NET *106 0.000119417
*CONN
*I *442:A I *D INV_X1
*I *441:ZN O *D NAND2_X1
*CAP
1 *442:A 5.3246e-05
2 *441:ZN 5.3246e-05
3 *442:A *441:A1 0
4 *442:A *441:A2 2.39679e-06
5 *442:A *519:A1 0
6 *442:A *757:A 2.70833e-06
7 *440:A *442:A 7.82021e-06
*RES
1 *441:ZN *442:A 15.8571 
*END

*D_NET *107 0.000133047
*CONN
*I *446:A I *D OAI21_X1
*I *444:ZN O *D NAND2_X1
*CAP
1 *446:A 5.78089e-05
2 *444:ZN 5.78089e-05
3 *446:A *413:A 0
4 *446:A *446:B1 2.75346e-06
5 *446:A *446:B2 1.46756e-05
*RES
1 *444:ZN *446:A 26.0357 
*END

*D_NET *108 0.00134072
*CONN
*I *446:B1 I *D OAI21_X1
*I *445:ZN O *D NAND2_X1
*CAP
1 *446:B1 0.000245938
2 *445:ZN 0.000127031
3 *108:16 0.000372969
4 *446:B1 *421:A 0
5 *446:B1 *446:B2 2.75346e-06
6 *446:B1 *653:CK 1.25215e-05
7 *446:B1 *662:CK 6.0406e-05
8 *446:B1 *121:52 0
9 *446:B1 *336:157 4.88546e-05
10 *446:B1 *406:8 6.48216e-07
11 *446:B1 *406:62 1.05415e-05
12 *108:16 *121:52 1.581e-05
13 *108:16 *121:60 0.000107575
14 *108:16 *121:66 0
15 *108:16 *121:74 0
16 *108:16 *403:19 1.38569e-05
17 *108:16 *406:10 5.14369e-05
18 *108:16 *406:16 4.77195e-05
19 *108:16 *406:18 4.88571e-05
20 *108:16 *406:24 9.98586e-05
21 *422:B1 *446:B1 0
22 *422:B2 *446:B1 2.17974e-05
23 *423:A1 *446:B1 0
24 *446:A *446:B1 2.75346e-06
25 *661:D *446:B1 4.93921e-05
*RES
1 *445:ZN *108:16 36.25 
2 *108:16 *446:B1 33.75 
*END

*D_NET *109 8.60914e-05
*CONN
*I *448:A2 I *D NAND2_X1
*I *447:ZN O *D INV_X1
*CAP
1 *448:A2 3.68984e-05
2 *447:ZN 3.68984e-05
3 *448:A2 *561:A 7.19234e-06
4 *448:A2 *332:10 3.88456e-06
5 *86:6 *448:A2 1.21774e-06
6 *86:14 *448:A2 0
*RES
1 *447:ZN *448:A2 14.1786 
*END

*D_NET *110 0.000912466
*CONN
*I *451:A1 I *D NAND2_X1
*I *454:A1 I *D NAND3_X1
*I *455:A I *D INV_X1
*I *458:A1 I *D NAND3_X1
*I *448:ZN O *D NAND2_X1
*CAP
1 *451:A1 5.18983e-05
2 *454:A1 0
3 *455:A 5.77346e-05
4 *458:A1 2.79617e-05
5 *448:ZN 4.05448e-05
6 *110:27 6.50283e-05
7 *110:12 0.000116623
8 *110:10 0.000173811
9 *451:A1 *411:A2 0
10 *451:A1 *451:A2 8.52419e-06
11 *451:A1 *112:8 7.59407e-06
12 *455:A *457:A1 9.05822e-06
13 *455:A *459:A1 2.39679e-06
14 *455:A *459:A2 2.38892e-05
15 *455:A *460:A2 4.80268e-06
16 *455:A *647:CK 2.14856e-06
17 *455:A *116:10 7.14654e-06
18 *455:A *303:22 5.56677e-06
19 *458:A1 *458:A3 1.58654e-05
20 *458:A1 *647:CK 1.26998e-05
21 *458:A1 *112:10 9.24246e-06
22 *110:10 *561:A 1.52995e-06
23 *110:10 *112:8 0
24 *110:10 *336:44 8.35175e-06
25 *110:12 *561:A 1.43544e-05
26 *110:12 *623:A 0
27 *110:12 *112:10 8.44927e-05
28 *110:27 *454:A3 4.12459e-06
29 *411:A1 *110:10 2.01395e-05
30 *411:A1 *110:12 3.60121e-05
31 *454:A2 *455:A 7.19036e-06
32 *458:A2 *458:A1 1.80327e-05
33 *458:A2 *110:12 4.12796e-06
34 *622:A *110:12 2.89375e-05
35 *12:8 *455:A 2.39679e-06
36 *12:8 *110:27 1.26998e-05
37 *86:6 *110:10 2.75402e-05
*RES
1 *448:ZN *110:10 15.7143 
2 *110:10 *110:12 13.8214 
3 *110:12 *458:A1 14.2143 
4 *110:12 *110:27 6.25 
5 *110:27 *455:A 22.0357 
6 *110:27 *454:A1 5 
7 *110:10 *451:A1 15.75 
*END

*D_NET *111 0.000238693
*CONN
*I *450:A1 I *D NAND2_X1
*I *449:ZN O *D NOR2_X1
*CAP
1 *450:A1 7.90453e-05
2 *449:ZN 7.90453e-05
3 *450:A1 *451:A2 2.75346e-06
4 *450:A1 *453:A1 1.87637e-06
5 *450:A1 *564:A 0
6 *450:A1 *564:B 1.87553e-05
7 *450:A1 *623:A 0
8 *450:A1 *113:10 3.57846e-05
9 *450:A1 *339:12 3.65066e-06
10 *449:A2 *450:A1 1.77822e-05
*RES
1 *449:ZN *450:A1 29.8929 
*END

*D_NET *112 0.000882961
*CONN
*I *451:A2 I *D NAND2_X1
*I *561:A I *D OAI21_X1
*I *454:A3 I *D NAND3_X1
*I *458:A3 I *D NAND3_X1
*I *450:ZN O *D NAND2_X1
*CAP
1 *451:A2 2.08237e-05
2 *561:A 9.61943e-05
3 *454:A3 1.53894e-05
4 *458:A3 3.84913e-05
5 *450:ZN 0
6 *112:10 0.000129186
7 *112:8 0.000222802
8 *112:4 7.21265e-05
9 *451:A2 *623:A 0
10 *454:A3 *647:CK 2.30029e-05
11 *458:A3 *460:A1 3.25065e-05
12 *458:A3 *460:A2 0
13 *458:A3 *647:CK 7.16188e-07
14 *458:A3 *336:44 2.84765e-06
15 *561:A *561:B2 2.96953e-06
16 *561:A *562:A 0
17 *561:A *336:44 8.88497e-06
18 *112:10 *336:44 5.43594e-05
19 *448:A2 *561:A 7.19234e-06
20 *450:A1 *451:A2 2.75346e-06
21 *451:A1 *451:A2 8.52419e-06
22 *451:A1 *112:8 7.59407e-06
23 *454:A2 *454:A3 2.39679e-06
24 *458:A1 *458:A3 1.58654e-05
25 *458:A1 *112:10 9.24246e-06
26 *458:A2 *458:A3 2.72171e-06
27 *12:8 *454:A3 1.86809e-06
28 *86:6 *561:A 0
29 *86:14 *561:A 0
30 *110:10 *561:A 1.52995e-06
31 *110:10 *112:8 0
32 *110:12 *561:A 1.43544e-05
33 *110:12 *112:10 8.44927e-05
34 *110:27 *454:A3 4.12459e-06
*RES
1 *450:ZN *112:4 5 
2 *112:4 *112:8 10.25 
3 *112:8 *112:10 13.1429 
4 *112:10 *458:A3 15.2143 
5 *112:10 *454:A3 12.25 
6 *112:8 *561:A 20.5357 
7 *112:4 *451:A2 7.67857 
*END

*D_NET *113 0.000240673
*CONN
*I *453:A1 I *D NOR2_X1
*I *565:A2 I *D NOR2_X1
*I *451:ZN O *D NAND2_X1
*CAP
1 *453:A1 5.18435e-05
2 *565:A2 0
3 *451:ZN 3.47047e-05
4 *113:10 8.65482e-05
5 *453:A1 *449:A1 4.16281e-06
6 *453:A1 *453:A2 5.52692e-06
7 *453:A1 *564:A 0
8 *453:A1 *565:A1 5.85723e-06
9 *113:10 *411:A2 0
10 *113:10 *565:A1 1.43686e-05
11 *450:A1 *453:A1 1.87637e-06
12 *450:A1 *113:10 3.57846e-05
13 *452:B *453:A1 0
*RES
1 *451:ZN *113:10 9.92857 
2 *113:10 *565:A2 5 
3 *113:10 *453:A1 10.6786 
*END

*D_NET *114 4.40744e-05
*CONN
*I *453:A2 I *D NOR2_X1
*I *452:ZN O *D XNOR2_X1
*CAP
1 *453:A2 1.81567e-05
2 *452:ZN 1.81567e-05
3 *452:B *453:A2 2.23415e-06
4 *453:A1 *453:A2 5.52692e-06
*RES
1 *452:ZN *453:A2 12.1786 
*END

*D_NET *115 0.000277999
*CONN
*I *457:A1 I *D NAND2_X1
*I *454:ZN O *D NAND3_X1
*CAP
1 *457:A1 8.92202e-05
2 *454:ZN 8.92202e-05
3 *457:A1 *456:A1 3.83453e-06
4 *457:A1 *459:A1 4.52968e-06
5 *457:A1 *459:A2 7.72792e-06
6 *457:A1 *460:A2 8.59171e-06
7 *457:A1 *624:B 1.08381e-05
8 *457:A1 *647:CK 3.90769e-05
9 *457:A1 *338:12 2.39679e-06
10 *454:A2 *457:A1 1.11258e-05
11 *455:A *457:A1 9.05822e-06
12 *458:A2 *457:A1 2.37916e-06
*RES
1 *454:ZN *457:A1 32.2143 
*END

*D_NET *116 0.000198673
*CONN
*I *459:A1 I *D NAND2_X1
*I *456:A1 I *D NAND2_X1
*I *455:ZN O *D INV_X1
*CAP
1 *459:A1 1.39528e-05
2 *456:A1 4.21511e-05
3 *455:ZN 1.61319e-05
4 *116:10 7.22358e-05
5 *456:A1 *624:B 2.08416e-06
6 *456:A1 *303:22 1.51469e-05
7 *456:A1 *338:12 2.16072e-07
8 *459:A1 *303:22 1.04006e-05
9 *116:10 *459:A2 1.78252e-06
10 *116:10 *624:B 6.6637e-06
11 *455:A *459:A1 2.39679e-06
12 *455:A *116:10 7.14654e-06
13 *457:A1 *456:A1 3.83453e-06
14 *457:A1 *459:A1 4.52968e-06
*RES
1 *455:ZN *116:10 17.2857 
2 *116:10 *456:A1 9.67857 
3 *116:10 *459:A1 7.25 
*END

*D_NET *117 6.16256e-05
*CONN
*I *457:A2 I *D NAND2_X1
*I *456:ZN O *D NAND2_X1
*CAP
1 *457:A2 2.76572e-05
2 *456:ZN 2.76572e-05
3 *457:A2 *624:B 6.31115e-06
*RES
1 *456:ZN *457:A2 22.9643 
*END

*D_NET *118 0.000148498
*CONN
*I *460:A1 I *D NAND2_X1
*I *458:ZN O *D NAND3_X1
*CAP
1 *460:A1 5.20411e-05
2 *458:ZN 5.20411e-05
3 *460:A1 *460:A2 1.21774e-06
4 *460:A1 *647:CK 6.19033e-06
5 *458:A3 *460:A1 3.25065e-05
6 *646:D *460:A1 4.50122e-06
*RES
1 *458:ZN *460:A1 16.6071 
*END

*D_NET *119 0.000218228
*CONN
*I *460:A2 I *D NAND2_X1
*I *459:ZN O *D NAND2_X1
*CAP
1 *460:A2 9.5604e-05
2 *459:ZN 9.5604e-05
3 *460:A2 *459:A2 1.04526e-05
4 *460:A2 *647:CK 0
5 *455:A *460:A2 4.80268e-06
6 *457:A1 *460:A2 8.59171e-06
7 *458:A2 *460:A2 1.955e-06
8 *458:A3 *460:A2 0
9 *460:A1 *460:A2 1.21774e-06
*RES
1 *459:ZN *460:A2 30.2857 
*END

*D_NET *120 0.000163181
*CONN
*I *611:B1 I *D OAI21_X1
*I *462:A1 I *D NOR2_X4
*I *461:ZN O *D NAND2_X1
*CAP
1 *611:B1 0
2 *462:A1 3.89053e-05
3 *461:ZN 2.19079e-05
4 *120:10 6.08132e-05
5 *462:A1 *461:A2 1.74856e-05
6 *462:A1 *611:A 2.39679e-06
7 *462:A1 *611:B2 1.40196e-05
8 *120:10 *443:B 7.65279e-06
9 *120:10 *461:A2 0
10 *120:10 *610:A 0
*RES
1 *461:ZN *120:10 17.2857 
2 *120:10 *462:A1 10.1786 
3 *120:10 *611:B1 5 
*END

*D_NET *121 0.00474206
*CONN
*I *473:A1 I *D NAND2_X1
*I *474:B2 I *D OAI21_X1
*I *471:A1 I *D NAND2_X1
*I *472:B2 I *D OAI21_X1
*I *569:S I *D MUX2_X1
*I *470:B2 I *D OAI21_X1
*I *469:A1 I *D NAND2_X1
*I *477:A1 I *D NAND2_X1
*I *475:A1 I *D NAND2_X1
*I *476:B2 I *D OAI21_X1
*I *478:B2 I *D OAI21_X1
*I *561:B1 I *D OAI21_X1
*I *468:B2 I *D OAI21_X1
*I *467:A1 I *D NAND2_X1
*I *464:A1 I *D NAND2_X1
*I *466:B2 I *D OAI21_X1
*I *462:ZN O *D NOR2_X4
*CAP
1 *473:A1 3.5536e-05
2 *474:B2 6.62225e-06
3 *471:A1 0
4 *472:B2 4.82248e-06
5 *569:S 0
6 *470:B2 0
7 *469:A1 7.19454e-06
8 *477:A1 3.11164e-05
9 *475:A1 0.000104335
10 *476:B2 0
11 *478:B2 8.87379e-06
12 *561:B1 0
13 *468:B2 0
14 *467:A1 1.14616e-05
15 *464:A1 0
16 *466:B2 3.40872e-05
17 *462:ZN 9.46659e-05
18 *121:183 1.27925e-05
19 *121:116 0.000242543
20 *121:103 0.000147081
21 *121:101 0.00014807
22 *121:78 0.000115158
23 *121:74 0.000265263
24 *121:66 0.000329423
25 *121:60 0.000170787
26 *121:52 0.000249681
27 *121:35 0.000159415
28 *121:22 0.000191972
29 *121:18 0.000228473
30 *121:14 0.00013144
31 *121:12 6.12645e-05
32 *121:10 0.000151689
33 *466:B2 *466:A 9.37424e-05
34 *466:B2 *615:B1 3.02009e-05
35 *466:B2 *124:8 8.13236e-05
36 *466:B2 *336:144 0
37 *467:A1 *468:A 1.13571e-05
38 *469:A1 *470:A 7.29164e-07
39 *472:B2 *421:A 3.09411e-06
40 *473:A1 *413:A 6.38328e-07
41 *473:A1 *424:A 6.03486e-06
42 *473:A1 *473:A2 1.26517e-05
43 *473:A1 *474:A 2.16603e-05
44 *473:A1 *635:A 0
45 *474:B2 *471:A2 0
46 *475:A1 *475:A2 2.75346e-06
47 *475:A1 *476:A 8.1439e-05
48 *475:A1 *545:A 6.38328e-07
49 *475:A1 *406:101 1.39047e-05
50 *477:A1 *469:A2 0
51 *477:A1 *477:A2 2.89018e-05
52 *477:A1 *478:A 2.08098e-06
53 *477:A1 *638:A 7.19036e-06
54 *477:A1 *650:CK 7.19036e-06
55 *478:B2 *478:A 6.48216e-07
56 *121:10 *424:A 1.21774e-06
57 *121:10 *652:CK 2.07643e-05
58 *121:12 *413:A 0
59 *121:12 *635:A 0
60 *121:12 *305:18 8.07854e-06
61 *121:14 *635:A 0
62 *121:14 *305:18 3.43575e-05
63 *121:18 *653:CK 4.26902e-05
64 *121:18 *305:18 8.98238e-05
65 *121:18 *406:70 0.000155922
66 *121:22 *465:A 4.35637e-05
67 *121:22 *566:A2 3.90891e-05
68 *121:22 *569:A 1.30565e-05
69 *121:22 *656:CK 0
70 *121:35 *466:A 5.45427e-05
71 *121:35 *304:12 2.94173e-05
72 *121:35 *336:144 0
73 *121:52 *420:A2 1.21774e-06
74 *121:52 *465:A 0
75 *121:52 *304:12 6.48216e-07
76 *121:52 *406:16 1.87369e-06
77 *121:52 *406:62 8.27907e-06
78 *121:60 *469:A2 1.66988e-05
79 *121:60 *470:A 7.65847e-06
80 *121:66 *469:A2 2.39679e-06
81 *121:66 *470:A 8.66302e-07
82 *121:101 *429:A2 0
83 *121:101 *469:A2 0
84 *121:101 *634:A 5.16131e-07
85 *121:116 *429:A2 7.98296e-06
86 *121:116 *476:A 2.16072e-07
87 *121:116 *478:A 3.471e-06
88 *121:116 *634:A 1.41812e-05
89 *121:116 *650:CK 1.33639e-05
90 *121:183 *471:A2 3.09411e-06
91 *419:B2 *121:52 2.03885e-06
92 *422:A *121:22 0
93 *428:B1 *475:A1 1.62377e-05
94 *431:B1 *477:A1 2.57414e-05
95 *431:B1 *121:101 6.84295e-05
96 *445:A1 *121:74 6.86795e-05
97 *445:A2 *121:74 0
98 *446:B1 *121:52 0
99 *470:B1 *121:52 8.43215e-07
100 *470:B1 *121:60 4.30918e-06
101 *472:B1 *472:B2 7.72792e-06
102 *474:B1 *121:183 1.40196e-06
103 *651:D *475:A1 3.08586e-05
104 *652:D *474:B2 6.56185e-06
105 *652:D *121:10 6.91187e-06
106 *653:D *121:14 9.24246e-06
107 *653:D *121:18 4.84017e-05
108 *654:D *121:60 3.83783e-05
109 *656:D *121:22 0
110 *657:D *121:18 8.07518e-05
111 *659:D *121:74 4.48316e-05
112 *659:D *121:101 2.78386e-05
113 *662:D *121:22 0
114 *663:D *121:52 0
115 *86:14 *121:74 0
116 *87:10 *121:74 4.62359e-05
117 *87:10 *121:101 0
118 *87:28 *121:116 4.15825e-06
119 *87:35 *121:116 0
120 *87:42 *475:A1 0
121 *87:42 *121:116 0
122 *87:51 *475:A1 0
123 *87:61 *121:35 0
124 *87:100 *121:52 5.60509e-05
125 *96:10 *473:A1 1.61249e-06
126 *96:10 *121:12 7.66675e-07
127 *98:8 *475:A1 1.88334e-06
128 *100:8 *477:A1 5.38494e-05
129 *108:16 *121:52 1.581e-05
130 *108:16 *121:60 0.000107575
131 *108:16 *121:66 0
132 *108:16 *121:74 0
*RES
1 *462:ZN *121:10 20.5 
2 *121:10 *121:12 2.28572 
3 *121:12 *121:14 5 
4 *121:14 *121:18 22.8929 
5 *121:18 *121:22 20.25 
6 *121:22 *466:B2 17.0357 
7 *121:22 *121:35 8.64286 
8 *121:35 *464:A1 5 
9 *121:35 *121:52 15.5714 
10 *121:52 *121:60 25.9286 
11 *121:60 *121:66 5.42857 
12 *121:66 *121:74 25.3214 
13 *121:74 *121:78 15.4286 
14 *121:78 *467:A1 6.60714 
15 *121:78 *468:B2 5 
16 *121:74 *561:B1 10 
17 *121:66 *121:101 18.8214 
18 *121:101 *121:103 5 
19 *121:103 *478:B2 5.75 
20 *121:103 *121:116 15.4286 
21 *121:116 *476:B2 5 
22 *121:116 *475:A1 29.8929 
23 *121:101 *477:A1 15.0714 
24 *121:60 *469:A1 5.92857 
25 *121:52 *470:B2 5 
26 *121:18 *569:S 5 
27 *121:14 *472:B2 10.75 
28 *121:12 *121:183 5.75 
29 *121:183 *471:A1 5 
30 *121:183 *474:B2 5.92857 
31 *121:10 *473:A1 15.0714 
*END

*D_NET *123 0.00026796
*CONN
*I *466:A I *D OAI21_X1
*I *464:ZN O *D NAND2_X1
*CAP
1 *466:A 5.80301e-05
2 *464:ZN 5.80301e-05
3 *466:A *466:B1 2.39679e-06
4 *466:B2 *466:A 9.37424e-05
5 *656:D *466:A 1.21774e-06
6 *121:35 *466:A 5.45427e-05
*RES
1 *464:ZN *466:A 28.4643 
*END

*D_NET *124 0.000302946
*CONN
*I *466:B1 I *D OAI21_X1
*I *615:B1 I *D OAI21_X2
*I *465:ZN O *D INV_X1
*CAP
1 *466:B1 5.06088e-06
2 *615:B1 6.36019e-05
3 *465:ZN 2.47753e-05
4 *124:8 9.34381e-05
5 *615:B1 *336:144 0
6 *124:8 *336:144 0
7 *466:A *466:B1 2.39679e-06
8 *466:B2 *615:B1 3.02009e-05
9 *466:B2 *124:8 8.13236e-05
10 *665:D *615:B1 2.14856e-06
*RES
1 *465:ZN *124:8 14.3214 
2 *124:8 *615:B1 17.7857 
3 *124:8 *466:B1 10.75 
*END

*D_NET *125 9.89253e-05
*CONN
*I *468:A I *D OAI21_X1
*I *467:ZN O *D NAND2_X1
*CAP
1 *468:A 4.09124e-05
2 *467:ZN 4.09124e-05
3 *468:A *467:A2 0
4 *468:A *562:A 0
5 *468:A *303:22 6.38328e-07
6 *468:A *337:8 0
7 *467:A1 *468:A 1.13571e-05
8 *468:B1 *468:A 5.10511e-06
*RES
1 *467:ZN *468:A 14.8929 
*END

*D_NET *126 0.00027216
*CONN
*I *470:A I *D OAI21_X1
*I *469:ZN O *D NAND2_X1
*CAP
1 *470:A 9.71339e-05
2 *469:ZN 9.71339e-05
3 *470:A *418:A 3.83757e-05
4 *469:A1 *470:A 7.29164e-07
5 *470:B1 *470:A 1.82068e-05
6 *654:D *470:A 1.20555e-05
7 *121:60 *470:A 7.65847e-06
8 *121:66 *470:A 8.66302e-07
*RES
1 *469:ZN *470:A 21.8929 
*END

*D_NET *127 7.78601e-05
*CONN
*I *472:A I *D OAI21_X1
*I *471:ZN O *D NAND2_X1
*CAP
1 *472:A 3.63356e-05
2 *471:ZN 3.63356e-05
3 *472:A *424:A 0
4 *472:A *471:A2 1.21774e-06
5 *472:B1 *472:A 1.21774e-06
6 *652:D *472:A 2.75346e-06
*RES
1 *471:ZN *472:A 14.2857 
*END

*D_NET *128 0.000130148
*CONN
*I *474:A I *D OAI21_X1
*I *473:ZN O *D NAND2_X1
*CAP
1 *474:A 2.81972e-05
2 *473:ZN 2.81972e-05
3 *474:A *424:A 2.75346e-06
4 *474:A *635:A 0
5 *473:A1 *474:A 2.16603e-05
6 *474:B1 *474:A 1.85634e-05
7 *96:10 *474:A 3.07768e-05
*RES
1 *473:ZN *474:A 24.7143 
*END

*D_NET *129 0.000255795
*CONN
*I *476:A I *D OAI21_X1
*I *475:ZN O *D NAND2_X1
*CAP
1 *476:A 5.57431e-05
2 *475:ZN 5.57431e-05
3 *476:A *650:CK 2.37137e-05
4 *476:A *651:CK 3.66923e-05
5 *475:A1 *476:A 8.1439e-05
6 *651:D *476:A 2.24822e-06
7 *121:116 *476:A 2.16072e-07
*RES
1 *475:ZN *476:A 18.75 
*END

*D_NET *130 0.000141081
*CONN
*I *478:A I *D OAI21_X1
*I *477:ZN O *D NAND2_X1
*CAP
1 *478:A 4.94519e-05
2 *477:ZN 4.94519e-05
3 *478:A *477:A2 2.29741e-05
4 *478:A *638:A 2.75346e-06
5 *478:A *650:CK 1.02494e-05
6 *477:A1 *478:A 2.08098e-06
7 *478:B2 *478:A 6.48216e-07
8 *121:116 *478:A 3.471e-06
*RES
1 *477:ZN *478:A 25.2857 
*END

*D_NET *131 0.000599329
*CONN
*I *480:A1 I *D NAND2_X2
*I *593:A1 I *D NAND3_X1
*I *479:ZN O *D NOR2_X2
*CAP
1 *480:A1 0
2 *593:A1 3.75618e-05
3 *479:ZN 7.5366e-05
4 *131:8 0.000112928
5 *593:A1 *483:A1 0
6 *593:A1 *689:CK 0
7 *131:8 *604:A 0
8 *131:8 *604:B2 7.93012e-05
9 *131:8 *605:A 8.06325e-05
10 *131:8 *689:CK 0
11 *131:8 *223:8 7.61387e-05
12 *593:A2 *593:A1 9.41709e-05
13 *18:10 *593:A1 1.77822e-05
14 *18:10 *131:8 2.54476e-05
*RES
1 *479:ZN *131:8 22.4643 
2 *131:8 *593:A1 15.6786 
3 *131:8 *480:A1 10 
*END

*D_NET *132 0.00279018
*CONN
*I *509:S I *D MUX2_X1
*I *508:S I *D MUX2_X1
*I *505:A1 I *D NAND2_X1
*I *511:S I *D MUX2_X1
*I *510:S I *D MUX2_X1
*I *513:S I *D MUX2_X1
*I *512:S I *D MUX2_X1
*I *516:A2 I *D NOR2_X4
*I *507:B2 I *D OAI21_X1
*I *543:A I *D INV_X4
*I *483:A1 I *D NAND2_X2
*I *480:ZN O *D NAND2_X2
*CAP
1 *509:S 5.11322e-05
2 *508:S 3.19936e-05
3 *505:A1 0
4 *511:S 0
5 *510:S 4.66063e-05
6 *513:S 7.77157e-05
7 *512:S 1.63281e-05
8 *516:A2 0
9 *507:B2 8.58574e-06
10 *543:A 3.49461e-05
11 *483:A1 8.50583e-05
12 *480:ZN 5.22109e-05
13 *132:115 0.000196597
14 *132:108 0.00012899
15 *132:92 8.37598e-05
16 *132:70 0.00014228
17 *132:66 0.00012124
18 *132:55 0.000117475
19 *132:49 0.000131187
20 *132:36 0.000121279
21 *132:19 0.000167367
22 *132:6 0.000191042
23 *483:A1 *544:A2 0
24 *483:A1 *596:A1 8.11762e-05
25 *483:A1 *689:CK 3.84423e-05
26 *483:A1 *174:8 0
27 *483:A1 *175:14 3.48838e-06
28 *483:A1 *405:69 1.72426e-05
29 *507:B2 *507:B1 1.87418e-05
30 *507:B2 *405:59 7.30645e-06
31 *508:S *385:20 8.26038e-06
32 *509:S *523:A2 0
33 *509:S *384:10 2.37093e-06
34 *509:S *385:14 0
35 *510:S *510:A 2.75346e-06
36 *510:S *511:A 1.07733e-05
37 *510:S *511:B 0
38 *510:S *385:14 5.79089e-05
39 *512:S *608:A2 0
40 *513:S *512:B 6.03486e-06
41 *513:S *513:A 5.01004e-05
42 *513:S *608:A2 0
43 *543:A *606:B2 3.65597e-06
44 *543:A *689:CK 0
45 *543:A *174:8 1.77822e-05
46 *132:6 *604:B1 0
47 *132:6 *604:B2 0
48 *132:6 *405:69 7.66905e-06
49 *132:19 *405:63 1.14251e-05
50 *132:36 *507:B1 1.91747e-05
51 *132:36 *516:A1 0
52 *132:36 *608:A2 0
53 *132:36 *405:59 4.4596e-05
54 *132:36 *405:63 8.56389e-06
55 *132:49 *516:A1 0
56 *132:55 *507:B1 0
57 *132:55 *516:A1 3.25548e-05
58 *132:55 *608:A2 7.9406e-06
59 *132:55 *155:8 1.77822e-05
60 *132:66 *512:A 1.66988e-05
61 *132:66 *155:8 0.000115619
62 *132:70 *512:A 5.96901e-05
63 *132:70 *512:B 6.0887e-06
64 *132:70 *513:A 0
65 *132:92 *511:B 6.07323e-06
66 *132:92 *512:A 4.79358e-06
67 *132:92 *385:14 2.86475e-06
68 *132:108 *505:A2 2.75346e-06
69 *132:108 *507:A 2.11815e-06
70 *132:108 *507:B1 0
71 *132:115 *505:A2 0.000152522
72 *132:115 *698:CK 0
73 *132:115 *384:10 1.21356e-05
74 *132:115 *385:20 1.32323e-05
75 *593:A1 *483:A1 0
76 *593:A2 *483:A1 0
77 *693:D *513:S 5.62244e-05
78 *694:D *132:70 0
79 *697:D *132:115 1.60038e-06
80 *698:D *132:49 5.62244e-05
81 *698:D *132:55 0
82 *698:D *132:108 0
83 *698:D *132:115 0
*RES
1 *480:ZN *132:6 10.25 
2 *132:6 *483:A1 26.1071 
3 *132:6 *132:19 5.75 
4 *132:19 *543:A 18.6429 
5 *132:19 *132:36 14.6786 
6 *132:36 *507:B2 11.75 
7 *132:36 *132:49 9.32143 
8 *132:49 *132:55 15.2857 
9 *132:55 *516:A2 10 
10 *132:55 *132:66 11.3571 
11 *132:66 *132:70 11.25 
12 *132:70 *512:S 11.6071 
13 *132:70 *513:S 20.4286 
14 *132:66 *132:92 4.25 
15 *132:92 *510:S 11.8571 
16 *132:92 *511:S 5 
17 *132:49 *132:108 1.75 
18 *132:108 *505:A1 5 
19 *132:108 *132:115 15.75 
20 *132:115 *508:S 9.60714 
21 *132:115 *509:S 10.75 
*END

*D_NET *134 0.000103839
*CONN
*I *483:A2 I *D NAND2_X2
*I *482:ZN O *D INV_X1
*CAP
1 *483:A2 4.20459e-05
2 *482:ZN 4.20459e-05
3 *483:A2 *594:A 0
4 *483:A2 *596:A1 1.21774e-06
5 *483:A2 *600:A1 5.39365e-06
6 *483:A2 *175:14 9.25123e-06
7 *482:A *483:A2 3.88456e-06
*RES
1 *482:ZN *483:A2 14.8571 
*END

*D_NET *135 0.00163524
*CONN
*I *590:A3 I *D NAND3_X1
*I *487:A1 I *D NAND3_X1
*I *488:A I *D INV_X1
*I *491:A1 I *D NAND3_X1
*I *494:A1 I *D NAND3_X1
*I *483:ZN O *D NAND2_X2
*CAP
1 *590:A3 1.97022e-05
2 *487:A1 9.52383e-05
3 *488:A 0
4 *491:A1 3.35702e-05
5 *494:A1 4.44616e-05
6 *483:ZN 7.39117e-05
7 *135:47 0.000155596
8 *135:38 0.000117461
9 *135:10 0.000141487
10 *135:8 0.000214173
11 *487:A1 *486:A 6.97608e-05
12 *487:A1 *487:A2 4.01547e-05
13 *487:A1 *487:A3 2.33845e-05
14 *487:A1 *583:A2 1.045e-05
15 *487:A1 *590:A2 2.96955e-05
16 *487:A1 *631:A 2.75346e-06
17 *487:A1 *137:23 8.88417e-05
18 *487:A1 *140:8 0
19 *487:A1 *371:27 4.86855e-05
20 *491:A1 *491:A2 1.74934e-05
21 *491:A1 *493:A1 2.39679e-06
22 *491:A1 *494:A3 2.20333e-05
23 *491:A1 *629:B 0
24 *494:A1 *494:A3 5.05227e-06
25 *494:A1 *496:A1 2.86475e-06
26 *494:A1 *496:A2 0
27 *494:A1 *370:18 8.35175e-06
28 *494:A1 *378:20 2.84765e-06
29 *590:A3 *590:A2 7.53491e-05
30 *590:A3 *137:23 6.55107e-05
31 *135:8 *595:A1 0
32 *135:8 *596:A1 6.50827e-06
33 *135:8 *175:14 0
34 *135:8 *370:12 2.13573e-06
35 *135:10 *370:12 6.08869e-06
36 *135:10 *378:20 2.9073e-05
37 *135:38 *595:A1 7.72792e-06
38 *135:38 *595:A2 1.23099e-05
39 *135:38 *370:12 2.75402e-05
40 *135:38 *378:14 2.83081e-06
41 *135:38 *378:44 1.98255e-05
42 *135:47 *487:A2 2.52965e-06
43 *135:47 *591:A1 3.78407e-05
44 *135:47 *595:A2 3.51536e-06
45 *135:47 *378:44 2.12356e-05
46 *494:A2 *494:A1 1.46266e-05
47 *494:A2 *135:10 2.16307e-05
48 *595:A3 *135:8 0
49 *629:A *491:A1 0
50 *26:8 *135:10 8.59171e-06
*RES
1 *483:ZN *135:8 17.7143 
2 *135:8 *135:10 9.07143 
3 *135:10 *494:A1 15.8929 
4 *135:10 *491:A1 13.75 
5 *135:8 *135:38 14.4286 
6 *135:38 *488:A 5 
7 *135:38 *135:47 10.75 
8 *135:47 *487:A1 26.5357 
9 *135:47 *590:A3 14.3214 
*END

*D_NET *137 0.000829893
*CONN
*I *515:A1 I *D NAND3_X2
*I *595:A1 I *D AND3_X1
*I *486:A I *D XNOR2_X1
*I *485:ZN O *D INV_X1
*CAP
1 *515:A1 0
2 *595:A1 6.19729e-05
3 *486:A 1.58145e-05
4 *485:ZN 2.38872e-05
5 *137:23 0.000155603
6 *137:8 0.000133331
7 *486:A *487:A2 1.55581e-05
8 *595:A1 *515:A2 2.16072e-07
9 *595:A1 *544:A1 0
10 *595:A1 *595:A2 2.9594e-05
11 *595:A1 *154:8 0
12 *137:8 *583:A2 0
13 *137:8 *587:A3 2.73686e-05
14 *137:23 *487:A2 1.39834e-05
15 *137:23 *515:A2 7.87811e-06
16 *137:23 *586:A3 5.51369e-06
17 *137:23 *589:A1 7.19036e-06
18 *137:23 *590:A1 4.32144e-07
19 *137:23 *590:A2 2.52965e-06
20 *137:23 *591:A1 1.80327e-05
21 *137:23 *595:A2 4.97008e-05
22 *487:A1 *486:A 6.97608e-05
23 *487:A1 *137:23 8.88417e-05
24 *590:A3 *137:23 6.55107e-05
25 *595:A3 *595:A1 2.94455e-05
26 *135:8 *595:A1 0
27 *135:38 *595:A1 7.72792e-06
*RES
1 *485:ZN *137:8 12.75 
2 *137:8 *486:A 13.6429 
3 *137:8 *137:23 19.6429 
4 *137:23 *595:A1 22.2857 
5 *137:23 *515:A1 5 
*END

*D_NET *138 0.000387491
*CONN
*I *487:A3 I *D NAND3_X1
*I *486:ZN O *D XNOR2_X1
*CAP
1 *487:A3 8.92608e-05
2 *486:ZN 8.92608e-05
3 *487:A3 *487:A2 2.81073e-05
4 *487:A3 *489:A1 4.13579e-05
5 *487:A3 *490:A1 0
6 *487:A3 *583:A2 4.24423e-05
7 *487:A3 *631:A 6.40668e-06
8 *487:A3 *631:B 7.72792e-06
9 *487:A3 *140:8 1.25431e-05
10 *487:A3 *140:10 5.10087e-06
11 *487:A3 *371:8 0
12 *487:A3 *371:14 4.18985e-05
13 *487:A1 *487:A3 2.33845e-05
*RES
1 *486:ZN *487:A3 34.4643 
*END

*D_NET *139 9.68374e-05
*CONN
*I *490:A1 I *D NAND2_X1
*I *487:ZN O *D NAND3_X1
*CAP
1 *490:A1 4.07167e-05
2 *487:ZN 4.07167e-05
3 *490:A1 *489:A1 6.56185e-06
4 *490:A1 *489:A2 2.75346e-06
5 *490:A1 *490:A2 6.0887e-06
6 *490:A1 *371:27 0
7 *487:A3 *490:A1 0
*RES
1 *487:ZN *490:A1 14.8929 
*END

*D_NET *140 0.00111519
*CONN
*I *591:A1 I *D NAND2_X1
*I *492:A1 I *D NAND2_X1
*I *495:A1 I *D NAND2_X1
*I *489:A1 I *D NAND2_X1
*I *488:ZN O *D INV_X1
*CAP
1 *591:A1 9.92038e-05
2 *492:A1 2.02634e-05
3 *495:A1 4.48868e-05
4 *489:A1 9.64734e-05
5 *488:ZN 0
6 *140:10 0.000157092
7 *140:8 0.000119034
8 *140:4 0.000182242
9 *489:A1 *489:A2 7.72792e-06
10 *489:A1 *631:B 1.21774e-06
11 *489:A1 *683:CK 0
12 *489:A1 *283:12 2.06738e-05
13 *489:A1 *371:8 6.15405e-06
14 *489:A1 *371:14 4.92863e-06
15 *492:A1 *492:A2 9.09239e-06
16 *492:A1 *493:A2 2.39679e-06
17 *492:A1 *587:A3 0
18 *492:A1 *629:B 0
19 *495:A1 *491:A2 6.38328e-07
20 *495:A1 *492:A2 2.30029e-05
21 *495:A1 *493:A1 0
22 *495:A1 *493:A2 2.23415e-06
23 *495:A1 *370:27 7.07065e-05
24 *591:A1 *487:A2 3.05041e-06
25 *591:A1 *589:A1 2.51355e-05
26 *591:A1 *589:A2 2.075e-05
27 *591:A1 *591:A2 2.75346e-06
28 *591:A1 *592:A1 0
29 *591:A1 *592:A2 5.34759e-06
30 *591:A1 *595:A2 9.53279e-06
31 *140:8 *590:A2 1.9871e-06
32 *140:8 *283:12 3.4802e-05
33 *140:10 *283:12 1.33704e-05
34 *140:10 *371:14 2.84765e-06
35 *487:A1 *140:8 0
36 *487:A3 *489:A1 4.13579e-05
37 *487:A3 *140:8 1.25431e-05
38 *487:A3 *140:10 5.10087e-06
39 *490:A1 *489:A1 6.56185e-06
40 *515:A3 *140:8 6.21255e-06
41 *135:47 *591:A1 3.78407e-05
42 *137:23 *591:A1 1.80327e-05
*RES
1 *488:ZN *140:4 5 
2 *140:4 *140:8 15.4286 
3 *140:8 *140:10 2.28572 
4 *140:10 *489:A1 22.1429 
5 *140:10 *495:A1 16.75 
6 *140:8 *492:A1 12.25 
7 *140:4 *591:A1 27.3929 
*END

*D_NET *141 0.000111541
*CONN
*I *490:A2 I *D NAND2_X1
*I *489:ZN O *D NAND2_X1
*CAP
1 *490:A2 4.61073e-05
2 *489:ZN 4.61073e-05
3 *490:A2 *489:A2 2.13573e-06
4 *490:A2 *683:CK 0
5 *490:A2 *405:23 8.70497e-06
6 *490:A1 *490:A2 6.0887e-06
7 *684:D *490:A2 2.39679e-06
*RES
1 *489:ZN *490:A2 25.2143 
*END

*D_NET *142 0.000100556
*CONN
*I *493:A1 I *D NAND2_X1
*I *491:ZN O *D NAND3_X1
*CAP
1 *493:A1 4.20028e-05
2 *491:ZN 4.20028e-05
3 *493:A1 *493:A2 5.52692e-06
4 *493:A1 *629:B 8.62655e-06
5 *491:A1 *493:A1 2.39679e-06
6 *495:A1 *493:A1 0
*RES
1 *491:ZN *493:A1 14.75 
*END

*D_NET *143 4.51366e-05
*CONN
*I *493:A2 I *D NAND2_X1
*I *492:ZN O *D NAND2_X1
*CAP
1 *493:A2 1.74894e-05
2 *492:ZN 1.74894e-05
3 *486:B *493:A2 0
4 *492:A1 *493:A2 2.39679e-06
5 *493:A1 *493:A2 5.52692e-06
6 *495:A1 *493:A2 2.23415e-06
*RES
1 *492:ZN *493:A2 12.1786 
*END

*D_NET *144 5.63838e-05
*CONN
*I *496:A1 I *D NAND2_X1
*I *494:ZN O *D NAND3_X1
*CAP
1 *496:A1 2.02867e-05
2 *494:ZN 2.02867e-05
3 *496:A1 *494:A3 2.75346e-06
4 *496:A1 *496:A2 1.01922e-05
5 *494:A1 *496:A1 2.86475e-06
*RES
1 *494:ZN *496:A1 12.8571 
*END

*D_NET *145 0.00013383
*CONN
*I *496:A2 I *D NAND2_X1
*I *495:ZN O *D NAND2_X1
*CAP
1 *496:A2 6.04649e-05
2 *495:ZN 6.04649e-05
3 *496:A2 *494:A3 0
4 *496:A2 *370:27 2.70833e-06
5 *494:A1 *496:A2 0
6 *496:A1 *496:A2 1.01922e-05
*RES
1 *495:ZN *496:A2 16.7143 
*END

*D_NET *146 6.88983e-05
*CONN
*I *498:A I *D INV_X1
*I *497:ZN O *D NAND2_X1
*CAP
1 *498:A 3.21715e-05
2 *497:ZN 3.21715e-05
3 *498:A *501:A1 7.16188e-07
4 *498:A *501:A2 3.83909e-06
5 *498:A *376:10 0
*RES
1 *497:ZN *498:A 13.25 
*END

*D_NET *147 8.09983e-05
*CONN
*I *501:A1 I *D NOR3_X1
*I *498:ZN O *D INV_X1
*CAP
1 *501:A1 3.74552e-05
2 *498:ZN 3.74552e-05
3 *501:A1 *501:A2 2.75346e-06
4 *501:A1 *376:10 0
5 *498:A *501:A1 7.16188e-07
6 *688:D *501:A1 2.61827e-06
*RES
1 *498:ZN *501:A1 14.2143 
*END

*D_NET *148 9.02189e-05
*CONN
*I *501:A2 I *D NOR3_X1
*I *499:ZN O *D NOR2_X1
*CAP
1 *501:A2 4.05483e-05
2 *499:ZN 4.05483e-05
3 *501:A2 *602:A1 0
4 *498:A *501:A2 3.83909e-06
5 *501:A1 *501:A2 2.75346e-06
6 *688:D *501:A2 2.52965e-06
*RES
1 *499:ZN *501:A2 14.1786 
*END

*D_NET *149 0.000656784
*CONN
*I *599:A I *D OAI21_X1
*I *501:A3 I *D NOR3_X1
*I *502:A1 I *D NOR2_X1
*I *500:ZN O *D INV_X1
*CAP
1 *599:A 4.95834e-05
2 *501:A3 0.000154342
3 *502:A1 0
4 *500:ZN 0
5 *149:10 0.000226878
6 *149:4 0.000122119
7 *599:A *500:A 2.39679e-06
8 *599:A *599:B1 0
9 *599:A *599:B2 0
10 *599:A *405:73 0
11 *599:A *405:143 8.14221e-05
12 *149:10 *599:B2 0
13 *149:10 *405:73 0
14 *502:A2 *149:10 2.83434e-06
15 *688:D *501:A3 1.72084e-05
*RES
1 *500:ZN *149:4 5 
2 *149:4 *149:10 12.3929 
3 *149:10 *502:A1 10 
4 *149:10 *501:A3 26.5357 
5 *149:4 *599:A 21.5714 
*END

*D_NET *150 7.38513e-05
*CONN
*I *504:A I *D INV_X1
*I *503:ZN O *D NAND2_X1
*CAP
1 *504:A 1.54347e-05
2 *503:ZN 1.54347e-05
3 *504:A *378:89 4.29819e-05
4 *504:A *405:255 0
5 *17:10 *504:A 0
*RES
1 *503:ZN *504:A 22.2857 
*END

*D_NET *151 5.86434e-05
*CONN
*I *507:A I *D OAI21_X1
*I *505:ZN O *D NAND2_X1
*CAP
1 *507:A 2.13285e-05
2 *505:ZN 2.13285e-05
3 *507:A *505:A2 7.77959e-06
4 *507:A *507:B1 6.0887e-06
5 *507:A *386:6 0
6 *132:108 *507:A 2.11815e-06
*RES
1 *505:ZN *507:A 12.8571 
*END

*D_NET *152 0.00055943
*CONN
*I *507:B1 I *D OAI21_X1
*I *606:B2 I *D OAI21_X1
*I *506:ZN O *D INV_X1
*CAP
1 *507:B1 5.84542e-05
2 *606:B2 0.00010799
3 *506:ZN 2.1325e-05
4 *152:8 0.000187769
5 *507:B1 *405:59 1.76665e-06
6 *606:B2 *516:A1 3.89859e-05
7 *606:B2 *544:A1 0
8 *606:B2 *544:A2 0
9 *606:B2 *606:B1 1.21774e-06
10 *606:B2 *174:8 0
11 *606:B2 *405:63 0
12 *152:8 *516:A1 6.84316e-05
13 *152:8 *608:A2 1.72426e-05
14 *507:A *507:B1 6.0887e-06
15 *507:B2 *507:B1 1.87418e-05
16 *543:A *606:B2 3.65597e-06
17 *699:D *606:B2 8.58686e-06
18 *132:36 *507:B1 1.91747e-05
19 *132:55 *507:B1 0
20 *132:108 *507:B1 0
*RES
1 *506:ZN *152:8 13.6429 
2 *152:8 *606:B2 22.4643 
3 *152:8 *507:B1 17.1786 
*END

*D_NET *153 0.000140531
*CONN
*I *515:A2 I *D NAND3_X2
*I *514:ZN O *D INV_X1
*CAP
1 *515:A2 6.48643e-05
2 *514:ZN 6.48643e-05
3 *515:A2 *592:A1 0
4 *515:A2 *592:A2 0
5 *515:A2 *596:A2 0
6 *514:A *515:A2 2.70833e-06
7 *595:A1 *515:A2 2.16072e-07
8 *137:23 *515:A2 7.87811e-06
*RES
1 *514:ZN *515:A2 16.9643 
*END

*D_NET *154 0.000634475
*CONN
*I *516:A1 I *D NOR2_X4
*I *542:A I *D INV_X1
*I *515:ZN O *D NAND3_X2
*CAP
1 *516:A1 0.00012949
2 *542:A 0
3 *515:ZN 9.35348e-05
4 *154:8 0.000223024
5 *516:A1 *544:A2 0
6 *516:A1 *608:A2 3.06715e-05
7 *154:8 *544:A2 0
8 *154:8 *590:A1 0
9 *515:A3 *154:8 1.77822e-05
10 *595:A1 *154:8 0
11 *606:B2 *516:A1 3.89859e-05
12 *132:36 *516:A1 0
13 *132:49 *516:A1 0
14 *132:55 *516:A1 3.25548e-05
15 *152:8 *516:A1 6.84316e-05
*RES
1 *515:ZN *154:8 19.75 
2 *154:8 *542:A 10 
3 *154:8 *516:A1 27.8929 
*END

*D_NET *155 0.00202089
*CONN
*I *538:A1 I *D NAND3_X1
*I *518:A1 I *D NAND2_X4
*I *529:A1 I *D NAND3_X1
*I *526:A1 I *D NAND3_X1
*I *520:A1 I *D NAND3_X1
*I *523:A1 I *D NAND3_X1
*I *532:A1 I *D NAND3_X1
*I *535:A1 I *D NAND3_X1
*I *608:A1 I *D NAND3_X1
*I *516:ZN O *D NOR2_X4
*CAP
1 *538:A1 5.32243e-05
2 *518:A1 0
3 *529:A1 0
4 *526:A1 0
5 *520:A1 0
6 *523:A1 2.2802e-05
7 *532:A1 0
8 *535:A1 4.59622e-06
9 *608:A1 7.25645e-06
10 *516:ZN 0.000102013
11 *155:57 7.53301e-05
12 *155:51 0.000129805
13 *155:47 0.000122864
14 *155:38 8.66237e-05
15 *155:34 8.19932e-05
16 *155:30 0.000103631
17 *155:19 3.47191e-05
18 *155:8 0.000129942
19 *523:A1 *520:A2 1.84554e-05
20 *523:A1 *156:20 5.53323e-05
21 *523:A1 *156:35 2.96272e-05
22 *523:A1 *385:20 6.30856e-06
23 *535:A1 *535:A2 2.75346e-06
24 *535:A1 *156:58 1.68643e-06
25 *538:A1 *535:A2 7.16193e-06
26 *538:A1 *536:A2 4.43868e-06
27 *538:A1 *538:A2 2.75346e-06
28 *538:A1 *538:A3 1.59582e-06
29 *538:A1 *609:A2 2.84765e-06
30 *608:A1 *538:A3 8.43215e-07
31 *608:A1 *608:A2 2.39679e-06
32 *608:A1 *156:58 1.68643e-06
33 *608:A1 *405:323 0
34 *155:8 *512:A 2.01395e-05
35 *155:8 *532:A2 1.46625e-05
36 *155:8 *608:A2 8.16836e-05
37 *155:8 *608:A3 2.94435e-05
38 *155:8 *381:8 6.44921e-05
39 *155:19 *532:A2 1.55671e-05
40 *155:19 *608:A3 2.51997e-05
41 *155:19 *609:A2 2.3767e-06
42 *155:30 *536:A2 1.88334e-06
43 *155:30 *609:A2 2.84765e-06
44 *155:34 *532:A2 1.63647e-05
45 *155:34 *609:A2 2.88159e-06
46 *155:34 *156:58 1.65202e-06
47 *155:34 *157:101 6.0887e-06
48 *155:38 *532:A2 5.06354e-05
49 *155:38 *157:101 2.86475e-06
50 *155:47 *529:A2 3.85541e-05
51 *155:47 *156:54 4.76326e-06
52 *155:47 *157:101 9.9032e-06
53 *155:51 *529:A2 0
54 *155:51 *156:50 0.000198374
55 *155:51 *167:10 0
56 *155:51 *382:14 0
57 *155:51 *405:321 3.84423e-05
58 *155:57 *509:B 2.75402e-05
59 *155:57 *520:A2 2.39679e-06
60 *155:57 *520:A3 1.68643e-06
61 *155:57 *526:A2 1.43544e-05
62 *155:57 *526:A3 1.40196e-06
63 *155:57 *156:35 6.1617e-06
64 *155:57 *156:50 2.94455e-05
65 *155:57 *383:8 1.32323e-05
66 *155:57 *405:321 6.97608e-05
67 *132:55 *155:8 1.77822e-05
68 *132:66 *155:8 0.000115619
*RES
1 *516:ZN *155:8 30.6072 
2 *155:8 *608:A1 10.75 
3 *155:8 *155:19 2.96429 
4 *155:19 *535:A1 10.75 
5 *155:19 *155:30 0.928572 
6 *155:30 *155:34 10.25 
7 *155:34 *155:38 5.67857 
8 *155:38 *532:A1 5 
9 *155:38 *155:47 6.67857 
10 *155:47 *155:51 16.7857 
11 *155:51 *155:57 13.3929 
12 *155:57 *523:A1 19.3214 
13 *155:57 *520:A1 5 
14 *155:51 *526:A1 10 
15 *155:47 *529:A1 5 
16 *155:34 *518:A1 5 
17 *155:30 *538:A1 16.1786 
*END

*D_NET *156 0.00251332
*CONN
*I *523:A3 I *D NAND3_X1
*I *529:A3 I *D NAND3_X1
*I *532:A3 I *D NAND3_X1
*I *518:A2 I *D NAND2_X4
*I *535:A3 I *D NAND3_X1
*I *538:A3 I *D NAND3_X1
*I *608:A3 I *D NAND3_X1
*I *526:A3 I *D NAND3_X1
*I *520:A3 I *D NAND3_X1
*I *517:ZN O *D INV_X1
*CAP
1 *523:A3 6.57755e-06
2 *529:A3 0
3 *532:A3 0
4 *518:A2 0
5 *535:A3 0
6 *538:A3 4.95498e-05
7 *608:A3 2.19541e-05
8 *526:A3 5.97086e-06
9 *520:A3 7.49183e-06
10 *517:ZN 0.000253106
11 *156:58 0.000118219
12 *156:56 8.17537e-05
13 *156:54 9.14409e-05
14 *156:50 0.000133718
15 *156:35 0.000142247
16 *156:20 8.18543e-05
17 *156:16 8.29199e-05
18 *156:8 0.000314045
19 *520:A3 *520:A2 2.39679e-06
20 *520:A3 *385:14 6.48216e-07
21 *523:A3 *509:B 4.32144e-07
22 *523:A3 *523:A2 2.39679e-06
23 *523:A3 *385:14 4.32144e-07
24 *526:A3 *526:A2 7.19036e-06
25 *538:A3 *535:A2 3.85541e-05
26 *538:A3 *538:A2 7.16188e-07
27 *538:A3 *608:A2 1.86809e-06
28 *538:A3 *380:10 1.49989e-05
29 *608:A3 *608:A2 6.32202e-06
30 *608:A3 *380:12 0
31 *156:8 *586:A1 0
32 *156:8 *588:A1 2.16603e-05
33 *156:8 *588:A2 5.39412e-06
34 *156:8 *373:8 2.45222e-05
35 *156:8 *405:34 2.72171e-06
36 *156:8 *405:49 2.00103e-05
37 *156:8 *405:295 0.00018405
38 *156:8 *405:306 5.1189e-05
39 *156:16 *509:B 2.16072e-07
40 *156:16 *696:CK 7.72792e-06
41 *156:16 *385:14 6.99155e-06
42 *156:20 *509:B 8.13236e-05
43 *156:20 *523:A2 1.18149e-05
44 *156:20 *385:20 1.90574e-06
45 *156:35 *509:B 1.24188e-05
46 *156:35 *521:A2 4.87339e-06
47 *156:35 *526:A2 9.74015e-06
48 *156:35 *527:A2 5.00979e-06
49 *156:50 *526:A2 1.66988e-05
50 *156:50 *527:A1 0
51 *156:50 *529:A2 2.39679e-06
52 *156:50 *679:CK 0
53 *156:50 *407:103 0
54 *156:54 *529:A2 1.4491e-05
55 *156:54 *532:A2 2.75346e-06
56 *156:54 *382:8 7.72537e-06
57 *156:56 *532:A2 5.06354e-05
58 *156:58 *532:A2 4.38826e-05
59 *156:58 *535:A2 2.39679e-06
60 *514:A *156:8 3.69961e-05
61 *523:A1 *156:20 5.53323e-05
62 *523:A1 *156:35 2.96272e-05
63 *535:A1 *156:58 1.68643e-06
64 *538:A1 *538:A3 1.59582e-06
65 *608:A1 *538:A3 8.43215e-07
66 *608:A1 *156:58 1.68643e-06
67 *696:D *156:16 7.93453e-06
68 *697:D *156:8 2.01369e-05
69 *155:8 *608:A3 2.94435e-05
70 *155:19 *608:A3 2.51997e-05
71 *155:34 *156:58 1.65202e-06
72 *155:47 *156:54 4.76326e-06
73 *155:51 *156:50 0.000198374
74 *155:57 *520:A3 1.68643e-06
75 *155:57 *526:A3 1.40196e-06
76 *155:57 *156:35 6.1617e-06
77 *155:57 *156:50 2.94455e-05
*RES
1 *517:ZN *156:8 45.5357 
2 *156:8 *156:16 11.4286 
3 *156:16 *156:20 9.32143 
4 *156:20 *520:A3 10.75 
5 *156:20 *156:35 12.3929 
6 *156:35 *526:A3 5.75 
7 *156:35 *156:50 22.5357 
8 *156:50 *156:54 6.67857 
9 *156:54 *156:56 4.75 
10 *156:56 *156:58 5.75 
11 *156:58 *608:A3 17.9643 
12 *156:58 *538:A3 11.3571 
13 *156:58 *535:A3 5 
14 *156:56 *518:A2 5 
15 *156:54 *532:A3 5 
16 *156:50 *529:A3 5 
17 *156:16 *523:A3 5.75 
*END

*D_NET *157 0.00260157
*CONN
*I *522:A1 I *D NAND2_X1
*I *525:A1 I *D NAND2_X1
*I *531:A1 I *D NAND2_X1
*I *612:A1 I *D NAND2_X1
*I *534:A1 I *D NAND2_X1
*I *519:A1 I *D NAND2_X1
*I *528:A1 I *D NAND2_X1
*I *537:A1 I *D NAND2_X1
*I *607:A1 I *D NAND2_X1
*I *518:ZN O *D NAND2_X4
*CAP
1 *522:A1 8.40493e-05
2 *525:A1 0
3 *531:A1 7.96035e-05
4 *612:A1 4.07047e-05
5 *534:A1 6.31122e-05
6 *519:A1 0.000147027
7 *528:A1 0
8 *537:A1 4.91651e-05
9 *607:A1 1.09767e-05
10 *518:ZN 0
11 *157:101 0.000229999
12 *157:56 0.000153427
13 *157:52 0.000204642
14 *157:38 0.000154642
15 *157:34 0.000229881
16 *157:21 0.000235219
17 *157:8 0.000110171
18 *157:4 0.000205928
19 *519:A1 *439:A2 4.69702e-07
20 *519:A1 *519:A2 8.43215e-07
21 *519:A1 *528:A2 6.74466e-06
22 *519:A1 *530:A1 3.90865e-05
23 *519:A1 *533:A2 0
24 *519:A1 *676:CK 0
25 *519:A1 *757:A 0
26 *519:A1 *758:A 0
27 *522:A1 *435:A2 1.46978e-05
28 *522:A1 *437:A1 3.02009e-05
29 *522:A1 *437:A2 2.88159e-06
30 *522:A1 *521:A2 1.15825e-05
31 *522:A1 *525:A2 6.37548e-06
32 *522:A1 *620:A 2.39679e-06
33 *522:A1 *759:A 3.25998e-05
34 *522:A1 *287:22 4.18444e-05
35 *531:A1 *533:A1 2.83077e-06
36 *531:A1 *533:A2 0
37 *531:A1 *676:CK 0
38 *531:A1 *287:47 0
39 *534:A1 *534:A2 7.40328e-06
40 *534:A1 *611:A 6.38328e-07
41 *534:A1 *611:B2 2.75346e-06
42 *534:A1 *612:A2 2.73667e-05
43 *537:A1 *674:CK 0
44 *537:A1 *407:6 0
45 *607:A1 *607:A2 2.75346e-06
46 *607:A1 *609:A1 0
47 *612:A1 *443:B 0
48 *612:A1 *611:A 2.24822e-06
49 *612:A1 *612:A2 6.31358e-06
50 *612:A1 *287:47 1.21666e-05
51 *157:8 *536:A2 0
52 *157:8 *609:A2 4.87933e-06
53 *157:21 *536:A2 0
54 *157:21 *537:A2 0
55 *157:34 *607:A2 0
56 *157:34 *765:A 0
57 *157:34 *167:10 3.03873e-05
58 *157:34 *287:32 0
59 *157:34 *287:47 0
60 *157:34 *403:39 0
61 *157:34 *407:86 0
62 *157:34 *407:92 0.000120658
63 *157:38 *528:A2 1.21774e-06
64 *157:38 *676:CK 0
65 *157:38 *404:33 0
66 *157:52 *676:CK 0
67 *157:52 *167:10 1.74511e-05
68 *157:52 *287:47 0
69 *157:56 *612:A2 2.52965e-06
70 *157:56 *676:CK 0
71 *157:56 *351:12 1.91498e-06
72 *157:56 *407:53 0
73 *157:101 *525:A2 2.39679e-06
74 *157:101 *607:A2 0
75 *157:101 *609:A2 5.52959e-06
76 *157:101 *619:A2 3.89107e-05
77 *157:101 *620:A 1.74856e-05
78 *157:101 *287:22 7.16188e-07
79 *157:101 *407:103 0
80 *436:A *157:101 0
81 *438:A *522:A1 2.39679e-06
82 *442:A *519:A1 0
83 *681:D *157:101 4.10539e-05
84 *691:D *612:A1 4.24423e-05
85 *155:34 *157:101 6.0887e-06
86 *155:38 *157:101 2.86475e-06
87 *155:47 *157:101 9.9032e-06
*RES
1 *518:ZN *157:4 5 
2 *157:4 *157:8 11.3571 
3 *157:8 *607:A1 11.25 
4 *157:8 *157:21 9.32143 
5 *157:21 *537:A1 9.75 
6 *157:21 *157:34 24.0714 
7 *157:34 *157:38 5.75 
8 *157:38 *528:A1 5 
9 *157:38 *519:A1 20.75 
10 *157:34 *157:52 7.71429 
11 *157:52 *157:56 9.75 
12 *157:56 *534:A1 12.1071 
13 *157:56 *612:A1 19.9643 
14 *157:52 *531:A1 17.8571 
15 *157:4 *157:101 18.5357 
16 *157:101 *525:A1 5 
17 *157:101 *522:A1 27.1786 
*END

*D_NET *158 0.000350139
*CONN
*I *521:A1 I *D NAND2_X1
*I *519:ZN O *D NAND2_X1
*CAP
1 *521:A1 8.73968e-05
2 *519:ZN 8.73968e-05
3 *521:A1 *433:A1 3.66585e-05
4 *521:A1 *758:A 0.000133366
5 *521:A1 *287:12 5.32089e-06
*RES
1 *519:ZN *521:A1 33.1429 
*END

*D_NET *159 0.000592924
*CONN
*I *521:A2 I *D NAND2_X1
*I *520:ZN O *D NAND3_X1
*CAP
1 *521:A2 0.000220117
2 *520:ZN 0.000220117
3 *521:A2 *437:A1 5.2025e-07
4 *521:A2 *524:A1 1.18321e-05
5 *521:A2 *527:A1 9.63333e-05
6 *521:A2 *758:A 8.59803e-06
7 *521:A2 *762:A 0
8 *521:A2 *407:103 1.13279e-05
9 *522:A1 *521:A2 1.15825e-05
10 *679:D *521:A2 7.62294e-06
11 *680:D *521:A2 0
12 *156:35 *521:A2 4.87339e-06
*RES
1 *520:ZN *521:A2 48.4286 
*END

*D_NET *160 0.000340634
*CONN
*I *524:A1 I *D NAND2_X1
*I *522:ZN O *D NAND2_X1
*CAP
1 *524:A1 0.000118263
2 *522:ZN 0.000118263
3 *524:A1 *435:A2 4.56073e-06
4 *524:A1 *524:A2 3.65322e-06
5 *524:A1 *759:A 1.88334e-06
6 *521:A2 *524:A1 1.18321e-05
7 *679:D *524:A1 8.21795e-05
*RES
1 *522:ZN *524:A1 35.5714 
*END

*D_NET *161 9.49941e-05
*CONN
*I *524:A2 I *D NAND2_X1
*I *523:ZN O *D NAND3_X1
*CAP
1 *524:A2 4.56704e-05
2 *523:ZN 4.56704e-05
3 *524:A1 *524:A2 3.65322e-06
4 *679:D *524:A2 0
*RES
1 *523:ZN *524:A2 14.6786 
*END

*D_NET *162 0.000352196
*CONN
*I *527:A1 I *D NAND2_X1
*I *525:ZN O *D NAND2_X1
*CAP
1 *527:A1 7.37295e-05
2 *525:ZN 7.37295e-05
3 *527:A1 *520:A2 0
4 *527:A1 *527:A2 2.75346e-06
5 *527:A1 *679:CK 5.43186e-05
6 *527:A1 *407:103 5.13318e-05
7 *521:A2 *527:A1 9.63333e-05
8 *156:50 *527:A1 0
*RES
1 *525:ZN *527:A1 34.3929 
*END

*D_NET *163 8.90248e-05
*CONN
*I *527:A2 I *D NAND2_X1
*I *526:ZN O *D NAND3_X1
*CAP
1 *527:A2 4.06308e-05
2 *526:ZN 4.06308e-05
3 *527:A1 *527:A2 2.75346e-06
4 *678:D *527:A2 0
5 *156:35 *527:A2 5.00979e-06
*RES
1 *526:ZN *527:A2 14.1786 
*END

*D_NET *164 0.000411979
*CONN
*I *530:A1 I *D NAND2_X1
*I *528:ZN O *D NAND2_X1
*CAP
1 *530:A1 9.16468e-05
2 *528:ZN 9.16468e-05
3 *530:A1 *439:A2 9.40924e-05
4 *530:A1 *441:A2 8.08846e-05
5 *530:A1 *167:10 0
6 *530:A1 *287:32 1.46216e-05
7 *519:A1 *530:A1 3.90865e-05
*RES
1 *528:ZN *530:A1 33.5 
*END

*D_NET *165 0.000396703
*CONN
*I *530:A2 I *D NAND2_X1
*I *529:ZN O *D NAND3_X1
*CAP
1 *530:A2 0.000108741
2 *529:ZN 0.000108741
3 *530:A2 *619:A2 4.04742e-06
4 *530:A2 *680:CK 0
5 *530:A2 *167:10 2.78389e-06
6 *530:A2 *287:32 0.000172389
*RES
1 *529:ZN *530:A2 34.3929 
*END

*D_NET *166 5.62985e-05
*CONN
*I *533:A1 I *D NAND2_X1
*I *531:ZN O *D NAND2_X1
*CAP
1 *533:A1 2.13458e-05
2 *531:ZN 2.13458e-05
3 *533:A1 *533:A2 6.0887e-06
4 *531:A1 *533:A1 2.83077e-06
5 *676:D *533:A1 4.68749e-06
*RES
1 *531:ZN *533:A1 12.8571 
*END

*D_NET *167 0.000886035
*CONN
*I *533:A2 I *D NAND2_X1
*I *532:ZN O *D NAND3_X1
*CAP
1 *533:A2 4.09554e-05
2 *532:ZN 0.000245325
3 *167:10 0.000286281
4 *533:A2 *676:CK 4.25296e-06
5 *167:10 *439:A2 0
6 *167:10 *441:A2 0
7 *167:10 *529:A2 1.77822e-05
8 *167:10 *619:A2 6.84274e-05
9 *167:10 *676:CK 6.34108e-06
10 *167:10 *287:32 2.05273e-05
11 *167:10 *359:10 9.0173e-05
12 *167:10 *407:92 4.92585e-05
13 *519:A1 *533:A2 0
14 *530:A1 *167:10 0
15 *530:A2 *167:10 2.78389e-06
16 *531:A1 *533:A2 0
17 *533:A1 *533:A2 6.0887e-06
18 *155:51 *167:10 0
19 *157:34 *167:10 3.03873e-05
20 *157:52 *167:10 1.74511e-05
*RES
1 *532:ZN *167:10 47.1429 
2 *167:10 *533:A2 9.25 
*END

*D_NET *168 0.000371677
*CONN
*I *536:A1 I *D NAND2_X1
*I *534:ZN O *D NAND2_X1
*CAP
1 *536:A1 0.000105678
2 *534:ZN 0.000105678
3 *536:A1 *443:B 2.72417e-06
4 *536:A1 *444:A2 0
5 *536:A1 *353:8 3.48838e-06
6 *536:A1 *407:23 0.000118804
7 *536:A1 *407:36 3.53054e-05
*RES
1 *534:ZN *536:A1 33.1429 
*END

*D_NET *169 0.000500544
*CONN
*I *536:A2 I *D NAND2_X1
*I *535:ZN O *D NAND3_X1
*CAP
1 *536:A2 0.000155354
2 *535:ZN 0.000155354
3 *536:A2 *444:A2 0
4 *536:A2 *537:A2 0.000165089
5 *536:A2 *539:A1 0
6 *536:A2 *609:A2 6.56924e-06
7 *536:A2 *674:CK 0
8 *536:A2 *404:12 7.72792e-06
9 *536:A2 *407:23 4.12796e-06
10 *538:A1 *536:A2 4.43868e-06
11 *155:30 *536:A2 1.88334e-06
12 *157:8 *536:A2 0
13 *157:21 *536:A2 0
*RES
1 *535:ZN *536:A2 40 
*END

*D_NET *170 0.000171389
*CONN
*I *539:A1 I *D NAND2_X1
*I *537:ZN O *D NAND2_X1
*CAP
1 *539:A1 7.74939e-05
2 *537:ZN 7.74939e-05
3 *539:A1 *674:CK 0
4 *536:A2 *539:A1 0
5 *674:D *539:A1 1.64013e-05
*RES
1 *537:ZN *539:A1 28.25 
*END

*D_NET *171 8.10986e-05
*CONN
*I *539:A2 I *D NAND2_X1
*I *538:ZN O *D NAND3_X1
*CAP
1 *539:A2 4.05493e-05
2 *538:ZN 4.05493e-05
*RES
1 *538:ZN *539:A2 14.3214 
*END

*D_NET *172 0.00010364
*CONN
*I *541:A I *D XNOR2_X1
*I *540:ZN O *D NAND3_X1
*CAP
1 *541:A 5.18198e-05
2 *540:ZN 5.18198e-05
3 *645:D *541:A 0
*RES
1 *540:ZN *541:A 15.1786 
*END

*D_NET *173 9.86704e-05
*CONN
*I *544:A1 I *D NAND2_X2
*I *542:ZN O *D INV_X1
*CAP
1 *544:A1 4.93352e-05
2 *542:ZN 4.93352e-05
3 *595:A1 *544:A1 0
4 *606:B2 *544:A1 0
*RES
1 *542:ZN *544:A1 14.8571 
*END

*D_NET *174 0.000185116
*CONN
*I *606:B1 I *D OAI21_X1
*I *544:A2 I *D NAND2_X2
*I *543:ZN O *D INV_X4
*CAP
1 *606:B1 5.60236e-06
2 *544:A2 5.18537e-05
3 *543:ZN 2.17382e-05
4 *174:8 7.91943e-05
5 *544:A2 *596:A1 0
6 *606:B1 *606:A 7.72792e-06
7 *483:A1 *544:A2 0
8 *483:A1 *174:8 0
9 *516:A1 *544:A2 0
10 *543:A *174:8 1.77822e-05
11 *606:B2 *544:A2 0
12 *606:B2 *606:B1 1.21774e-06
13 *606:B2 *174:8 0
14 *154:8 *544:A2 0
*RES
1 *543:ZN *174:8 12.2857 
2 *174:8 *544:A2 15.6786 
3 *174:8 *606:B1 10.75 
*END

*D_NET *175 0.00173004
*CONN
*I *600:A3 I *D NAND3_X1
*I *570:A1 I *D NAND3_X1
*I *552:A1 I *D NAND3_X1
*I *548:A1 I *D NAND2_X2
*I *559:A1 I *D NAND3_X1
*I *544:ZN O *D NAND2_X2
*CAP
1 *600:A3 0
2 *570:A1 6.49118e-05
3 *552:A1 1.70996e-05
4 *548:A1 2.33889e-05
5 *559:A1 5.00001e-05
6 *544:ZN 0.000169818
7 *175:26 0.000157989
8 *175:24 0.000135255
9 *175:20 0.000214635
10 *175:14 0.000285985
11 *548:A1 *553:A1 0
12 *548:A1 *366:10 2.55787e-06
13 *552:A1 *572:A 2.39679e-06
14 *552:A1 *368:25 1.82068e-05
15 *559:A1 *551:A1 6.50581e-06
16 *559:A1 *559:A2 2.39679e-06
17 *559:A1 *179:12 8.58925e-06
18 *559:A1 *366:10 2.30003e-05
19 *570:A1 *598:A1 9.97341e-06
20 *570:A1 *598:A2 5.01029e-05
21 *570:A1 *599:B2 1.41415e-05
22 *570:A1 *368:6 4.2112e-06
23 *175:14 *594:A 3.83453e-06
24 *175:14 *596:A1 6.4079e-06
25 *175:14 *596:A2 0
26 *175:14 *600:A1 3.28562e-05
27 *175:14 *600:A2 2.39679e-06
28 *175:14 *606:A 0
29 *175:14 *378:14 0
30 *175:14 *378:78 0
31 *175:20 *500:A 0
32 *175:20 *598:A1 0
33 *175:20 *599:B2 7.79621e-05
34 *175:20 *600:A2 3.85541e-05
35 *175:20 *368:6 2.25683e-05
36 *175:24 *368:25 4.96057e-05
37 *175:26 *551:A1 1.71706e-05
38 *175:26 *570:A3 2.72171e-06
39 *175:26 *178:10 2.08098e-06
40 *175:26 *178:48 1.67075e-05
41 *175:26 *368:25 1.66988e-05
42 *483:A1 *175:14 3.48838e-06
43 *483:A2 *175:14 9.25123e-06
44 *597:A2 *175:14 5.01331e-06
45 *597:A2 *175:20 1.66067e-05
46 *690:D *175:14 1.43979e-05
47 *1:14 *552:A1 9.08971e-06
48 *21:10 *559:A1 3.48613e-06
49 *23:24 *175:20 0.00011798
50 *135:8 *175:14 0
*RES
1 *544:ZN *175:14 34 
2 *175:14 *175:20 19.4286 
3 *175:20 *175:24 8.64286 
4 *175:24 *175:26 10.4286 
5 *175:26 *559:A1 15.8929 
6 *175:26 *548:A1 12.25 
7 *175:24 *552:A1 12.25 
8 *175:20 *570:A1 13.8571 
9 *175:14 *600:A3 5 
*END

*D_NET *177 0.000331064
*CONN
*I *547:A I *D INV_X1
*I *550:A2 I *D NAND2_X1
*I *546:ZN O *D NAND3_X1
*CAP
1 *547:A 7.17197e-06
2 *550:A2 1.70146e-05
3 *546:ZN 4.14617e-05
4 *177:10 6.56483e-05
5 *547:A *550:A1 7.19036e-06
6 *550:A2 *550:A1 1.68643e-06
7 *550:A2 *551:A2 2.39679e-06
8 *550:A2 *575:A2 0
9 *177:10 *573:A1 0
10 *177:10 *573:A2 6.71316e-06
11 *177:10 *582:A1 0
12 *549:A *550:A2 7.16188e-07
13 *1:14 *177:10 1.26998e-05
14 *1:16 *177:10 2.25658e-05
15 *1:47 *550:A2 1.62377e-05
16 *1:47 *177:10 1.97744e-05
17 *23:24 *550:A2 4.18985e-05
18 *23:24 *177:10 6.78878e-05
*RES
1 *546:ZN *177:10 16.8929 
2 *177:10 *550:A2 13.0357 
3 *177:10 *547:A 10.75 
*END

*D_NET *178 0.0012641
*CONN
*I *570:A3 I *D NAND3_X1
*I *552:A3 I *D NAND3_X1
*I *548:A2 I *D NAND2_X2
*I *559:A3 I *D NAND3_X1
*I *557:A1 I *D OR2_X1
*I *554:A1 I *D OR2_X1
*I *547:ZN O *D INV_X1
*CAP
1 *570:A3 7.0216e-05
2 *552:A3 0
3 *548:A2 0
4 *559:A3 0
5 *557:A1 0
6 *554:A1 8.07353e-05
7 *547:ZN 2.88088e-05
8 *178:48 9.27233e-05
9 *178:16 0.000107875
10 *178:12 4.76489e-05
11 *178:10 6.54108e-05
12 *178:8 9.62179e-05
13 *554:A1 *556:B1 6.9533e-05
14 *554:A1 *179:12 2.75346e-06
15 *570:A3 *553:A2 3.81944e-05
16 *570:A3 *598:A1 2.39679e-06
17 *570:A3 *598:A2 1.99211e-05
18 *570:A3 *197:8 0
19 *570:A3 *368:25 1.21105e-05
20 *178:8 *551:A1 2.39679e-06
21 *178:8 *551:A2 6.22609e-06
22 *178:8 *553:A2 7.72537e-06
23 *178:8 *572:A 0
24 *178:10 *551:A1 9.36292e-05
25 *178:12 *551:A1 1.29947e-05
26 *178:12 *559:A2 2.96955e-05
27 *178:12 *575:A2 2.96955e-05
28 *178:12 *179:12 6.73878e-05
29 *178:16 *179:12 6.76399e-05
30 *178:48 *553:A2 6.92212e-05
31 *554:A2 *554:A1 0
32 *1:14 *570:A3 5.94167e-07
33 *1:14 *178:8 7.16188e-07
34 *21:16 *554:A1 7.05546e-05
35 *23:24 *570:A3 4.95679e-05
36 *23:24 *178:10 0
37 *23:24 *178:48 0
38 *175:26 *570:A3 2.72171e-06
39 *175:26 *178:10 2.08098e-06
40 *175:26 *178:48 1.67075e-05
*RES
1 *547:ZN *178:8 13.25 
2 *178:8 *178:10 5.67857 
3 *178:10 *178:12 4.32143 
4 *178:12 *178:16 8.64286 
5 *178:16 *554:A1 17.1071 
6 *178:16 *557:A1 5 
7 *178:12 *559:A3 10 
8 *178:10 *548:A2 10 
9 *178:8 *178:48 4.32143 
10 *178:48 *552:A3 10 
11 *178:48 *570:A3 20 
*END

*D_NET *179 0.00108618
*CONN
*I *551:A1 I *D NAND2_X1
*I *558:A1 I *D NAND2_X1
*I *556:B1 I *D OAI21_X1
*I *548:ZN O *D NAND2_X2
*CAP
1 *551:A1 3.53194e-05
2 *558:A1 0
3 *556:B1 0.000166205
4 *548:ZN 0
5 *179:12 0.000211225
6 *179:6 8.03396e-05
7 *551:A1 *551:A2 8.43215e-07
8 *556:B1 *556:A 8.86341e-05
9 *556:B1 *556:B2 3.1969e-06
10 *556:B1 *558:A2 7.11289e-06
11 *556:B1 *560:A1 4.31185e-06
12 *556:B1 *671:CK 9.90646e-05
13 *179:12 *558:A2 2.43548e-06
14 *179:12 *560:A1 1.11168e-06
15 *179:12 *560:A2 3.60147e-05
16 *554:A1 *556:B1 6.9533e-05
17 *554:A1 *179:12 2.75346e-06
18 *554:A2 *556:B1 1.76665e-06
19 *559:A1 *551:A1 6.50581e-06
20 *559:A1 *179:12 8.58925e-06
21 *627:B *556:B1 0
22 *671:D *556:B1 0
23 *21:10 *179:12 0
24 *175:26 *551:A1 1.71706e-05
25 *178:8 *551:A1 2.39679e-06
26 *178:10 *551:A1 9.36292e-05
27 *178:12 *551:A1 1.29947e-05
28 *178:12 *179:12 6.73878e-05
29 *178:16 *179:12 6.76399e-05
*RES
1 *548:ZN *179:6 10 
2 *179:6 *179:12 13.4643 
3 *179:12 *556:B1 30.3929 
4 *179:12 *558:A1 5 
5 *179:6 *551:A1 16.4286 
*END

*D_NET *180 9.00554e-05
*CONN
*I *550:A1 I *D NAND2_X1
*I *549:Z O *D XOR2_X1
*CAP
1 *550:A1 3.93909e-05
2 *549:Z 3.93909e-05
3 *550:A1 *551:A2 2.39679e-06
4 *547:A *550:A1 7.19036e-06
5 *549:A *550:A1 0
6 *550:A2 *550:A1 1.68643e-06
7 *1:14 *550:A1 0
*RES
1 *549:Z *550:A1 14.0357 
*END

*D_NET *181 0.000103489
*CONN
*I *551:A2 I *D NAND2_X1
*I *550:ZN O *D NAND2_X1
*CAP
1 *551:A2 4.58129e-05
2 *550:ZN 4.58129e-05
3 *551:A2 *575:A2 0
4 *550:A1 *551:A2 2.39679e-06
5 *550:A2 *551:A2 2.39679e-06
6 *551:A1 *551:A2 8.43215e-07
7 *1:14 *551:A2 0
8 *178:8 *551:A2 6.22609e-06
*RES
1 *550:ZN *551:A2 14.75 
*END

*D_NET *182 0.000115582
*CONN
*I *553:A1 I *D NAND2_X1
*I *551:ZN O *D NAND2_X1
*CAP
1 *553:A1 4.80885e-05
2 *551:ZN 4.80885e-05
3 *553:A1 *553:A2 8.43215e-07
4 *553:A1 *368:25 2.23871e-06
5 *548:A1 *553:A1 0
6 *672:D *553:A1 1.63235e-05
*RES
1 *551:ZN *553:A1 15.8929 
*END

*D_NET *183 0.000203545
*CONN
*I *553:A2 I *D NAND2_X1
*I *552:ZN O *D NAND3_X1
*CAP
1 *553:A2 3.71642e-05
2 *552:ZN 3.71642e-05
3 *553:A1 *553:A2 8.43215e-07
4 *570:A3 *553:A2 3.81944e-05
5 *1:14 *553:A2 1.32329e-05
6 *23:24 *553:A2 0
7 *178:8 *553:A2 7.72537e-06
8 *178:48 *553:A2 6.92212e-05
*RES
1 *552:ZN *553:A2 26.4286 
*END

*D_NET *184 0.000279504
*CONN
*I *556:A I *D OAI21_X1
*I *554:ZN O *D OR2_X1
*CAP
1 *556:A 6.54991e-05
2 *554:ZN 6.54991e-05
3 *556:A *555:A 4.51285e-05
4 *556:A *556:B2 6.56185e-06
5 *554:A2 *556:A 3.88456e-06
6 *556:B1 *556:A 8.86341e-05
7 *627:B *556:A 0
8 *22:10 *556:A 4.29713e-06
*RES
1 *554:ZN *556:A 20.6071 
*END

*D_NET *185 0.000107286
*CONN
*I *556:B2 I *D OAI21_X1
*I *555:ZN O *D INV_X1
*CAP
1 *556:B2 4.87636e-05
2 *555:ZN 4.87636e-05
3 *556:A *556:B2 6.56185e-06
4 *556:B1 *556:B2 3.1969e-06
*RES
1 *555:ZN *556:B2 15.5714 
*END

*D_NET *186 0.000126897
*CONN
*I *558:A2 I *D NAND2_X1
*I *557:ZN O *D OR2_X1
*CAP
1 *558:A2 4.76546e-05
2 *557:ZN 4.76546e-05
3 *558:A2 *560:A1 3.22834e-06
4 *558:A2 *670:CK 0
5 *558:A2 *671:CK 1.20875e-05
6 *556:B1 *558:A2 7.11289e-06
7 *21:10 *558:A2 6.72327e-06
8 *179:12 *558:A2 2.43548e-06
*RES
1 *557:ZN *558:A2 16.0714 
*END

*D_NET *187 9.82736e-05
*CONN
*I *560:A1 I *D NAND2_X1
*I *558:ZN O *D NAND2_X1
*CAP
1 *560:A1 3.58241e-05
2 *558:ZN 3.58241e-05
3 *560:A1 *560:A2 1.83178e-06
4 *560:A1 *671:CK 1.61417e-05
5 *556:B1 *560:A1 4.31185e-06
6 *558:A2 *560:A1 3.22834e-06
7 *179:12 *560:A1 1.11168e-06
*RES
1 *558:ZN *560:A1 23.5357 
*END

*D_NET *188 0.000244414
*CONN
*I *560:A2 I *D NAND2_X1
*I *559:ZN O *D NAND3_X1
*CAP
1 *560:A2 9.54634e-05
2 *559:ZN 9.54634e-05
3 *560:A2 *671:CK 1.5641e-05
4 *560:A1 *560:A2 1.83178e-06
5 *179:12 *560:A2 3.60147e-05
*RES
1 *559:ZN *560:A2 30.1429 
*END

*D_NET *189 6.87591e-05
*CONN
*I *562:A I *D INV_X1
*I *561:ZN O *D OAI21_X1
*CAP
1 *562:A 3.21706e-05
2 *561:ZN 3.21706e-05
3 *562:A *561:B2 3.55154e-06
4 *468:A *562:A 0
5 *561:A *562:A 0
6 *641:D *562:A 8.66302e-07
*RES
1 *561:ZN *562:A 13.5357 
*END

*D_NET *190 0.00012665
*CONN
*I *564:A I *D XOR2_X1
*I *563:ZN O *D NAND3_X1
*CAP
1 *564:A 5.76429e-05
2 *563:ZN 5.76429e-05
3 *564:A *563:A3 7.19234e-06
4 *564:A *278:8 1.27666e-06
5 *450:A1 *564:A 0
6 *452:B *564:A 2.89521e-06
7 *453:A1 *564:A 0
*RES
1 *563:ZN *564:A 26.0357 
*END

*D_NET *191 0.000126077
*CONN
*I *565:A1 I *D NOR2_X1
*I *564:Z O *D XOR2_X1
*CAP
1 *565:A1 4.43954e-05
2 *564:Z 4.43954e-05
3 *565:A1 *449:A1 7.16188e-07
4 *565:A1 *564:B 1.45779e-05
5 *453:A1 *565:A1 5.85723e-06
6 *649:D *565:A1 1.76665e-06
7 *113:10 *565:A1 1.43686e-05
*RES
1 *564:Z *565:A1 25.2143 
*END

*D_NET *192 0.00023622
*CONN
*I *568:A I *D INV_X1
*I *567:ZN O *D NAND2_X1
*CAP
1 *568:A 0.000116948
2 *567:ZN 0.000116948
3 *658:D *568:A 2.32458e-06
*RES
1 *567:ZN *568:A 31.6429 
*END

*D_NET *193 9.32384e-05
*CONN
*I *582:A1 I *D NAND2_X1
*I *570:ZN O *D NAND3_X1
*CAP
1 *582:A1 3.97356e-05
2 *570:ZN 3.97356e-05
3 *582:A1 *573:A2 0
4 *582:A1 *197:8 1.37673e-05
5 *673:D *582:A1 0
6 *177:10 *582:A1 0
*RES
1 *570:ZN *582:A1 14.25 
*END

*D_NET *194 0.000195907
*CONN
*I *573:A1 I *D NAND2_X1
*I *571:ZN O *D NAND2_X1
*CAP
1 *573:A1 6.14844e-05
2 *571:ZN 6.14844e-05
3 *573:A1 *573:A2 1.68643e-06
4 *573:A1 *574:A 1.21774e-06
5 *573:A1 *579:A1 0
6 *573:A1 *197:8 0
7 *546:A2 *573:A1 7.00346e-05
8 *1:47 *573:A1 0
9 *23:24 *573:A1 0
10 *177:10 *573:A1 0
*RES
1 *571:ZN *573:A1 27.1071 
*END

*D_NET *195 0.000107502
*CONN
*I *573:A2 I *D NAND2_X1
*I *572:ZN O *D INV_X1
*CAP
1 *573:A2 4.45411e-05
2 *572:ZN 4.45411e-05
3 *573:A2 *572:A 2.70833e-06
4 *573:A2 *197:8 0
5 *546:A2 *573:A2 2.39679e-06
6 *573:A1 *573:A2 1.68643e-06
7 *578:A1 *573:A2 2.16072e-07
8 *582:A1 *573:A2 0
9 *1:16 *573:A2 2.86475e-06
10 *1:27 *573:A2 1.83411e-06
11 *177:10 *573:A2 6.71316e-06
*RES
1 *572:ZN *573:A2 14.6786 
*END

*D_NET *196 5.55725e-05
*CONN
*I *574:A I *D INV_X1
*I *573:ZN O *D NAND2_X1
*CAP
1 *574:A 2.28257e-05
2 *573:ZN 2.28257e-05
3 *574:A *580:A3 0
4 *574:A *582:A2 6.0887e-06
5 *546:A2 *574:A 2.61469e-06
6 *573:A1 *574:A 1.21774e-06
*RES
1 *573:ZN *574:A 12.8571 
*END

*D_NET *197 0.000251864
*CONN
*I *576:A1 I *D NAND2_X1
*I *580:A1 I *D NAND3_X1
*I *574:ZN O *D INV_X1
*CAP
1 *576:A1 3.16727e-05
2 *580:A1 9.36375e-06
3 *574:ZN 4.84291e-05
4 *197:8 8.94656e-05
5 *576:A1 *576:A2 8.43215e-07
6 *576:A1 *581:A1 4.69702e-07
7 *576:A1 *581:A2 5.31486e-06
8 *576:A1 *582:A2 3.09143e-06
9 *580:A1 *576:A2 8.43215e-07
10 *580:A1 *579:A1 1.28122e-06
11 *580:A1 *580:A2 2.39679e-06
12 *580:A1 *582:A2 2.39679e-06
13 *197:8 *580:A3 0
14 *197:8 *582:A2 3.66923e-05
15 *570:A3 *197:8 0
16 *573:A1 *197:8 0
17 *573:A2 *197:8 0
18 *582:A1 *197:8 1.37673e-05
19 *673:D *576:A1 5.83614e-06
20 *673:D *197:8 0
21 *2:12 *197:8 0
*RES
1 *574:ZN *197:8 11.3571 
2 *197:8 *580:A1 6.25 
3 *197:8 *576:A1 9.21429 
*END

*D_NET *198 0.000432548
*CONN
*I *576:A2 I *D NAND2_X1
*I *580:A2 I *D NAND3_X1
*I *575:ZN O *D NAND3_X1
*CAP
1 *576:A2 2.29241e-05
2 *580:A2 4.87573e-06
3 *575:ZN 0.000109151
4 *198:10 0.000136951
5 *576:A2 *581:A2 4.32144e-07
6 *580:A2 *580:A3 7.19036e-06
7 *198:10 *571:A2 2.67697e-05
8 *198:10 *579:A1 9.05228e-06
9 *546:A2 *198:10 0
10 *576:A1 *576:A2 8.43215e-07
11 *580:A1 *576:A2 8.43215e-07
12 *580:A1 *580:A2 2.39679e-06
13 *2:18 *576:A2 4.26902e-05
14 *2:18 *198:10 6.84274e-05
*RES
1 *575:ZN *198:10 23.8929 
2 *198:10 *580:A2 10.75 
3 *198:10 *576:A2 13.0357 
*END

*D_NET *199 0.000149169
*CONN
*I *577:A1 I *D NAND2_X1
*I *576:ZN O *D NAND2_X1
*CAP
1 *577:A1 5.68675e-05
2 *576:ZN 5.68675e-05
3 *577:A1 *581:A1 3.01743e-06
4 *577:A1 *581:A2 0
5 *2:12 *577:A1 8.43215e-07
6 *2:18 *577:A1 3.15734e-05
*RES
1 *576:ZN *577:A1 26.9286 
*END

*D_NET *200 8.71424e-05
*CONN
*I *581:A1 I *D NAND2_X1
*I *577:ZN O *D NAND2_X1
*CAP
1 *581:A1 2.34804e-05
2 *577:ZN 2.34804e-05
3 *581:A1 *581:A2 8.43215e-07
4 *581:A1 *582:A2 2.75346e-06
5 *576:A1 *581:A1 4.69702e-07
6 *577:A1 *581:A1 3.01743e-06
7 *2:12 *581:A1 3.40234e-06
8 *2:18 *581:A1 2.96955e-05
*RES
1 *577:ZN *581:A1 23.0357 
*END

*D_NET *201 0.000106931
*CONN
*I *579:A1 I *D NAND2_X1
*I *578:ZN O *D NAND2_X1
*CAP
1 *579:A1 3.99035e-05
2 *578:ZN 3.99035e-05
3 *579:A1 *580:A3 8.43215e-07
4 *579:A1 *582:A2 2.16072e-07
5 *546:A2 *579:A1 4.9678e-06
6 *573:A1 *579:A1 0
7 *580:A1 *579:A1 1.28122e-06
8 *2:18 *579:A1 1.07633e-05
9 *198:10 *579:A1 9.05228e-06
*RES
1 *578:ZN *579:A1 24.8929 
*END

*D_NET *202 7.42922e-05
*CONN
*I *580:A3 I *D NAND3_X1
*I *579:ZN O *D NAND2_X1
*CAP
1 *580:A3 3.31293e-05
2 *579:ZN 3.31293e-05
3 *580:A3 *581:A2 0
4 *574:A *580:A3 0
5 *579:A1 *580:A3 8.43215e-07
6 *580:A2 *580:A3 7.19036e-06
7 *25:8 *580:A3 0
8 *197:8 *580:A3 0
*RES
1 *579:ZN *580:A3 13.5357 
*END

*D_NET *203 0.000104413
*CONN
*I *581:A2 I *D NAND2_X1
*I *580:ZN O *D NAND3_X1
*CAP
1 *581:A2 4.89114e-05
2 *580:ZN 4.89114e-05
3 *576:A1 *581:A2 5.31486e-06
4 *576:A2 *581:A2 4.32144e-07
5 *577:A1 *581:A2 0
6 *580:A3 *581:A2 0
7 *581:A1 *581:A2 8.43215e-07
8 *673:D *581:A2 0
*RES
1 *580:ZN *581:A2 15.2143 
*END

*D_NET *204 0.000236822
*CONN
*I *582:A2 I *D NAND2_X1
*I *581:ZN O *D NAND2_X1
*CAP
1 *582:A2 7.5918e-05
2 *581:ZN 7.5918e-05
3 *546:A2 *582:A2 0
4 *574:A *582:A2 6.0887e-06
5 *576:A1 *582:A2 3.09143e-06
6 *579:A1 *582:A2 2.16072e-07
7 *580:A1 *582:A2 2.39679e-06
8 *581:A1 *582:A2 2.75346e-06
9 *2:12 *582:A2 6.82202e-07
10 *2:18 *582:A2 3.30654e-05
11 *197:8 *582:A2 3.66923e-05
*RES
1 *581:ZN *582:A2 29.5 
*END

*D_NET *205 7.05948e-05
*CONN
*I *584:A I *D INV_X1
*I *583:ZN O *D NAND2_X1
*CAP
1 *584:A 3.285e-05
2 *583:ZN 3.285e-05
3 *584:A *485:A 3.09411e-06
4 *584:A *583:A2 0
5 *584:A *587:A3 9.57492e-07
6 *584:A *372:12 8.43215e-07
7 *486:B *584:A 0
*RES
1 *583:ZN *584:A 13.5357 
*END

*D_NET *206 0.000251747
*CONN
*I *586:A1 I *D NAND3_X1
*I *584:ZN O *D INV_X1
*CAP
1 *586:A1 4.00258e-05
2 *584:ZN 4.00258e-05
3 *586:A1 *586:A2 4.18985e-05
4 *586:A1 *586:A3 3.01743e-06
5 *586:A1 *587:A2 5.46432e-05
6 *586:A1 *372:25 1.72405e-05
7 *586:A1 *372:36 5.48953e-05
8 *156:8 *586:A1 0
*RES
1 *584:ZN *586:A1 26.3571 
*END

*D_NET *207 0.000533556
*CONN
*I *586:A3 I *D NAND3_X1
*I *595:A2 I *D AND3_X1
*I *585:ZN O *D INV_X1
*CAP
1 *586:A3 4.35072e-05
2 *595:A2 0.000112968
3 *585:ZN 0
4 *207:4 0.000156475
5 *586:A3 *487:A2 1.52083e-06
6 *586:A3 *586:A2 1.3515e-05
7 *586:A3 *587:A1 2.52965e-06
8 *586:A3 *587:A3 2.23415e-06
9 *586:A3 *589:A1 2.91179e-05
10 *586:A3 *589:A2 1.28122e-06
11 *595:A2 *585:A 0
12 *595:A2 *589:A1 2.63274e-05
13 *595:A2 *589:A2 3.08967e-05
14 *586:A1 *586:A3 3.01743e-06
15 *591:A1 *595:A2 9.53279e-06
16 *595:A1 *595:A2 2.9594e-05
17 *135:38 *595:A2 1.23099e-05
18 *135:47 *595:A2 3.51536e-06
19 *137:23 *586:A3 5.51369e-06
20 *137:23 *595:A2 4.97008e-05
*RES
1 *585:ZN *207:4 5 
2 *207:4 *595:A2 20.6071 
3 *207:4 *586:A3 20.3929 
*END

*D_NET *208 0.000185166
*CONN
*I *589:A1 I *D NAND2_X1
*I *586:ZN O *D NAND3_X1
*CAP
1 *589:A1 4.54244e-05
2 *586:ZN 4.54244e-05
3 *589:A1 *587:A3 0
4 *589:A1 *589:A2 6.54588e-06
5 *514:A *589:A1 0
6 *586:A3 *589:A1 2.91179e-05
7 *591:A1 *589:A1 2.51355e-05
8 *595:A2 *589:A1 2.63274e-05
9 *137:23 *589:A1 7.19036e-06
*RES
1 *586:ZN *589:A1 25.7857 
*END

*D_NET *209 0.000188044
*CONN
*I *588:A1 I *D NAND2_X1
*I *587:ZN O *D NAND3_X1
*CAP
1 *588:A1 6.15829e-05
2 *587:ZN 6.15829e-05
3 *588:A1 *588:A2 3.10804e-05
4 *588:A1 *589:A2 2.89521e-06
5 *588:A1 *372:12 0
6 *588:A1 *373:23 0
7 *588:A1 *405:34 9.24246e-06
8 *156:8 *588:A1 2.16603e-05
*RES
1 *587:ZN *588:A1 27.6429 
*END

*D_NET *210 0.000233396
*CONN
*I *589:A2 I *D NAND2_X1
*I *588:ZN O *D NAND2_X1
*CAP
1 *589:A2 7.68562e-05
2 *588:ZN 7.68562e-05
3 *589:A2 *487:A2 3.19164e-07
4 *589:A2 *585:A 7.27357e-06
5 *589:A2 *586:A2 2.52965e-06
6 *589:A2 *587:A3 0
7 *589:A2 *591:A2 7.16188e-07
8 *589:A2 *373:23 6.47615e-06
9 *586:A3 *589:A2 1.28122e-06
10 *588:A1 *589:A2 2.89521e-06
11 *589:A1 *589:A2 6.54588e-06
12 *591:A1 *589:A2 2.075e-05
13 *595:A2 *589:A2 3.08967e-05
*RES
1 *588:ZN *589:A2 19.4286 
*END

*D_NET *211 0.000171612
*CONN
*I *590:A1 I *D NAND3_X1
*I *589:ZN O *D NAND2_X1
*CAP
1 *590:A1 5.40463e-05
2 *589:ZN 5.40463e-05
3 *590:A1 *590:A2 6.23711e-05
4 *514:A *590:A1 7.16188e-07
5 *515:A3 *590:A1 0
6 *137:23 *590:A1 4.32144e-07
7 *154:8 *590:A1 0
*RES
1 *589:ZN *590:A1 26.1429 
*END

*D_NET *212 0.000104022
*CONN
*I *592:A1 I *D NAND2_X1
*I *590:ZN O *D NAND3_X1
*CAP
1 *592:A1 3.13863e-05
2 *590:ZN 3.13863e-05
3 *592:A1 *592:A2 6.0887e-06
4 *514:A *592:A1 3.51605e-05
5 *515:A2 *592:A1 0
6 *591:A1 *592:A1 0
7 *685:D *592:A1 0
*RES
1 *590:ZN *592:A1 14.1786 
*END

*D_NET *213 5.56521e-05
*CONN
*I *592:A2 I *D NAND2_X1
*I *591:ZN O *D NAND2_X1
*CAP
1 *592:A2 2.19483e-05
2 *591:ZN 2.19483e-05
3 *515:A2 *592:A2 0
4 *591:A1 *592:A2 5.34759e-06
5 *592:A1 *592:A2 6.0887e-06
6 *685:D *592:A2 3.19164e-07
*RES
1 *591:ZN *592:A2 12.8571 
*END

*D_NET *214 0.000313743
*CONN
*I *606:A I *D OAI21_X1
*I *594:A I *D INV_X1
*I *593:ZN O *D NAND3_X1
*CAP
1 *606:A 6.52522e-05
2 *594:A 6.36662e-05
3 *593:ZN 8.71307e-06
4 *214:6 0.000137631
5 *606:A *405:63 1.1209e-05
6 *606:A *405:69 1.57087e-05
7 *483:A2 *594:A 0
8 *606:B1 *606:A 7.72792e-06
9 *175:14 *594:A 3.83453e-06
10 *175:14 *606:A 0
*RES
1 *593:ZN *214:6 5.92857 
2 *214:6 *594:A 11.8929 
3 *214:6 *606:A 13.75 
*END

*D_NET *215 0.000194813
*CONN
*I *596:A1 I *D NAND2_X1
*I *594:ZN O *D INV_X1
*CAP
1 *596:A1 4.7925e-05
2 *594:ZN 4.7925e-05
3 *596:A1 *596:A2 3.65322e-06
4 *483:A1 *596:A1 8.11762e-05
5 *483:A2 *596:A1 1.21774e-06
6 *544:A2 *596:A1 0
7 *135:8 *596:A1 6.50827e-06
8 *175:14 *596:A1 6.4079e-06
*RES
1 *594:ZN *596:A1 27.1071 
*END

*D_NET *216 0.00011163
*CONN
*I *596:A2 I *D NAND2_X1
*I *595:ZN O *D AND3_X1
*CAP
1 *596:A2 5.39883e-05
2 *595:ZN 5.39883e-05
3 *596:A2 *370:12 0
4 *596:A2 *378:14 0
5 *515:A2 *596:A2 0
6 *596:A1 *596:A2 3.65322e-06
7 *175:14 *596:A2 0
*RES
1 *595:ZN *596:A2 15.3571 
*END

*D_NET *217 0.000223034
*CONN
*I *600:A1 I *D NAND3_X1
*I *596:ZN O *D NAND2_X1
*CAP
1 *600:A1 8.21793e-05
2 *596:ZN 8.21793e-05
3 *600:A1 *500:A 0
4 *600:A1 *600:A2 2.39679e-06
5 *600:A1 *378:78 0
6 *483:A2 *600:A1 5.39365e-06
7 *597:A2 *600:A1 1.80284e-05
8 *175:14 *600:A1 3.28562e-05
*RES
1 *596:ZN *600:A1 19.75 
*END

*D_NET *218 0.000125434
*CONN
*I *599:B1 I *D OAI21_X1
*I *597:ZN O *D NAND3_X1
*CAP
1 *599:B1 5.20668e-05
2 *597:ZN 5.20668e-05
3 *599:B1 *500:A 0
4 *599:B1 *599:B2 5.52959e-06
5 *599:B1 *405:143 1.57711e-05
6 *599:A *599:B1 0
*RES
1 *597:ZN *599:B1 25.5714 
*END

*D_NET *219 0.000344461
*CONN
*I *599:B2 I *D OAI21_X1
*I *598:ZN O *D OR2_X1
*CAP
1 *599:B2 0.000123414
2 *598:ZN 0.000123414
3 *570:A1 *599:B2 1.41415e-05
4 *599:A *599:B2 0
5 *599:B1 *599:B2 5.52959e-06
6 *687:D *599:B2 0
7 *149:10 *599:B2 0
8 *175:20 *599:B2 7.79621e-05
*RES
1 *598:ZN *599:B2 25.3571 
*END

*D_NET *220 0.000134906
*CONN
*I *600:A2 I *D NAND3_X1
*I *599:ZN O *D OAI21_X1
*CAP
1 *600:A2 4.57794e-05
2 *599:ZN 4.57794e-05
3 *600:A2 *500:A 0
4 *600:A1 *600:A2 2.39679e-06
5 *175:14 *600:A2 2.39679e-06
6 *175:20 *600:A2 3.85541e-05
*RES
1 *599:ZN *600:A2 15.3571 
*END

*D_NET *221 8.2687e-05
*CONN
*I *601:A I *D INV_X1
*I *600:ZN O *D NAND3_X1
*CAP
1 *601:A 4.13435e-05
2 *600:ZN 4.13435e-05
3 *601:A *593:A3 0
4 *597:A2 *601:A 0
*RES
1 *600:ZN *601:A 23.6429 
*END

*D_NET *222 0.000387143
*CONN
*I *604:B1 I *D OAI21_X1
*I *605:B2 I *D AOI21_X1
*I *602:ZN O *D NAND3_X1
*CAP
1 *604:B1 3.1795e-05
2 *605:B2 0
3 *602:ZN 0.000125656
4 *222:6 0.000157451
5 *604:B1 *603:A 0
6 *604:B1 *604:A 2.39679e-06
7 *604:B1 *604:B2 2.52965e-06
8 *604:B1 *605:B1 2.52965e-06
9 *222:6 *604:A 5.43615e-05
10 *222:6 *605:A 4.32144e-07
11 *222:6 *605:B1 8.43215e-07
12 *222:6 *688:CK 0
13 *222:6 *374:6 9.14865e-06
14 *688:D *222:6 0
15 *18:10 *222:6 0
16 *132:6 *604:B1 0
*RES
1 *602:ZN *222:6 18.75 
2 *222:6 *605:B2 5 
3 *222:6 *604:B1 9.10714 
*END

*D_NET *223 0.000320158
*CONN
*I *605:B1 I *D AOI21_X1
*I *604:B2 I *D OAI21_X1
*I *603:ZN O *D INV_X1
*CAP
1 *605:B1 8.6061e-06
2 *604:B2 4.08371e-05
3 *603:ZN 2.87663e-05
4 *223:8 7.82095e-05
5 *604:B2 *689:CK 0
6 *605:B1 *605:A 2.39679e-06
7 *223:8 *689:CK 0
8 *604:B1 *604:B2 2.52965e-06
9 *604:B1 *605:B1 2.52965e-06
10 *131:8 *604:B2 7.93012e-05
11 *131:8 *223:8 7.61387e-05
12 *132:6 *604:B2 0
13 *222:6 *605:B1 8.43215e-07
*RES
1 *603:ZN *223:8 14.3214 
2 *223:8 *604:B2 15.0714 
3 *223:8 *605:B1 10.75 
*END

*D_NET *224 0.00016215
*CONN
*I *605:A I *D AOI21_X1
*I *604:ZN O *D OAI21_X1
*CAP
1 *605:A 3.93441e-05
2 *604:ZN 3.93441e-05
3 *605:A *604:A 0
4 *605:B1 *605:A 2.39679e-06
5 *131:8 *605:A 8.06325e-05
6 *222:6 *605:A 4.32144e-07
*RES
1 *604:ZN *605:A 25.0714 
*END

*D_NET *225 8.46487e-05
*CONN
*I *609:A1 I *D NAND2_X1
*I *607:ZN O *D NAND2_X1
*CAP
1 *609:A1 3.59595e-05
2 *607:ZN 3.59595e-05
3 *609:A1 *607:A2 7.20018e-06
4 *609:A1 *609:A2 5.52959e-06
5 *607:A1 *609:A1 0
*RES
1 *607:ZN *609:A1 14.2143 
*END

*D_NET *226 0.000232481
*CONN
*I *609:A2 I *D NAND2_X1
*I *608:ZN O *D NAND3_X1
*CAP
1 *609:A2 8.47881e-05
2 *608:ZN 8.47881e-05
3 *609:A2 *532:A2 2.94435e-05
4 *536:A2 *609:A2 6.56924e-06
5 *538:A1 *609:A2 2.84765e-06
6 *609:A1 *609:A2 5.52959e-06
7 *155:19 *609:A2 2.3767e-06
8 *155:30 *609:A2 2.84765e-06
9 *155:34 *609:A2 2.88159e-06
10 *157:8 *609:A2 4.87933e-06
11 *157:101 *609:A2 5.52959e-06
*RES
1 *608:ZN *609:A2 29.4286 
*END

*D_NET *227 8.92322e-05
*CONN
*I *611:B2 I *D OAI21_X1
*I *610:ZN O *D INV_X1
*CAP
1 *611:B2 3.62296e-05
2 *610:ZN 3.62296e-05
3 *611:B2 *612:A2 0
4 *611:B2 *652:CK 0
5 *462:A1 *611:B2 1.40196e-05
6 *534:A1 *611:B2 2.75346e-06
7 *652:D *611:B2 0
*RES
1 *610:ZN *611:B2 14.1786 
*END

*D_NET *228 0.00016453
*CONN
*I *612:A2 I *D NAND2_X1
*I *611:ZN O *D OAI21_X1
*CAP
1 *612:A2 5.78816e-05
2 *611:ZN 5.78816e-05
3 *612:A2 *611:A 9.8489e-06
4 *612:A2 *351:12 2.70833e-06
5 *534:A1 *612:A2 2.73667e-05
6 *611:B2 *612:A2 0
7 *612:A1 *612:A2 6.31358e-06
8 *157:56 *612:A2 2.52965e-06
*RES
1 *611:ZN *612:A2 17.6071 
*END

*D_NET *229 0.000144251
*CONN
*I *615:A I *D OAI21_X2
*I *614:ZN O *D NAND2_X1
*CAP
1 *615:A 5.89705e-05
2 *614:ZN 5.89705e-05
3 *615:A *666:CK 0
4 *615:B2 *615:A 0
5 *665:D *615:A 1.37673e-05
6 *666:D *615:A 1.25431e-05
*RES
1 *614:ZN *615:A 26.7143 
*END

*D_NET *230 0.000375146
*CONN
*I *617:B1 I *D AOI21_X1
*I *618:B2 I *D AOI21_X1
*I *616:ZN O *D INV_X1
*CAP
1 *617:B1 3.27919e-05
2 *618:B2 4.5189e-05
3 *616:ZN 0
4 *230:4 7.7981e-05
5 *617:B1 *617:B2 1.82068e-05
6 *617:B1 *618:A 8.58925e-06
7 *617:B1 *669:CK 0
8 *618:B2 *617:A 5.65502e-05
9 *618:B2 *617:B2 1.70588e-05
10 *618:B2 *618:A 3.6951e-06
11 *618:B2 *364:21 3.02351e-05
12 *618:B2 *405:151 8.06325e-05
13 *667:D *618:B2 4.21607e-06
*RES
1 *616:ZN *230:4 5 
2 *230:4 *618:B2 22.5714 
3 *230:4 *617:B1 19.0357 
*END

*D_NET *231 0.000167835
*CONN
*I *618:A I *D AOI21_X1
*I *617:ZN O *D AOI21_X1
*CAP
1 *618:A 6.8074e-05
2 *617:ZN 6.8074e-05
3 *618:A *617:B2 6.50827e-06
4 *618:A *618:B1 2.39679e-06
5 *618:A *669:CK 0
6 *617:B1 *618:A 8.58925e-06
7 *618:B2 *618:A 3.6951e-06
8 *667:D *618:A 1.04975e-05
*RES
1 *617:ZN *618:A 27.5714 
*END

*D_NET *232 0.000114515
*CONN
*I *620:A I *D INV_X1
*I *619:ZN O *D NAND2_X1
*CAP
1 *620:A 2.50198e-05
2 *619:ZN 2.50198e-05
3 *620:A *287:22 4.45934e-05
4 *522:A1 *620:A 2.39679e-06
5 *157:101 *620:A 1.74856e-05
*RES
1 *619:ZN *620:A 14.25 
*END

*D_NET *233 0.000140665
*CONN
*I *642:D I *D DFF_X1
*I *642:QN O *D DFF_X1
*CAP
1 *642:D 5.4546e-05
2 *642:QN 5.4546e-05
3 *642:D *643:D 3.15734e-05
4 *642:D *405:92 0
*RES
1 *642:QN *642:D 27.0357 
*END

*D_NET *234 0.000231939
*CONN
*I *643:D I *D DFF_X1
*I *621:S O *D HA_X1
*CAP
1 *643:D 7.71405e-05
2 *621:S 7.71405e-05
3 *643:D *642:CK 3.90891e-05
4 *643:D *333:10 6.99525e-06
5 *643:D *405:105 0
6 *643:D *405:118 0
7 *642:D *643:D 3.15734e-05
*RES
1 *621:S *643:D 30.1071 
*END

*D_NET *278 0.000415688
*CONN
*I *623:B I *D HA_X1
*I *622:B I *D HA_X1
*I *647:QN O *D DFF_X1
*CAP
1 *623:B 1.50803e-05
2 *622:B 5.37051e-05
3 *647:QN 8.89885e-05
4 *278:8 0.000157774
5 *622:B *623:A 9.57492e-07
6 *622:B *624:A 6.74466e-06
7 *622:B *337:8 2.00206e-05
8 *278:8 *563:A3 3.96215e-05
9 *278:8 *624:A 1.83182e-05
10 *278:8 *303:22 1.32009e-05
11 *564:A *278:8 1.27666e-06
*RES
1 *647:QN *278:8 16.2143 
2 *278:8 *622:B 11.25 
3 *278:8 *623:B 6.60714 
*END

*D_NET *283 0.000444832
*CONN
*I *630:B I *D HA_X1
*I *629:B I *D HA_X1
*I *683:QN O *D DFF_X1
*CAP
1 *630:B 0
2 *629:B 6.07453e-05
3 *683:QN 7.9759e-05
4 *283:12 0.000140504
5 *629:B *587:A3 1.32323e-05
6 *629:B *370:51 2.44202e-05
7 *283:12 *683:CK 0
8 *283:12 *370:27 1.28122e-06
9 *489:A1 *283:12 2.06738e-05
10 *491:A1 *629:B 0
11 *492:A1 *629:B 0
12 *493:A1 *629:B 8.62655e-06
13 *683:D *283:12 4.74172e-05
14 *140:8 *283:12 3.4802e-05
15 *140:10 *283:12 1.33704e-05
*RES
1 *683:QN *283:12 26.6786 
2 *283:12 *629:B 12.6786 
3 *283:12 *630:B 5 
*END

*D_NET *394 0.000203665
*CONN
*P addr[0] I
*I *640:A I *D BUF_X1
*CAP
1 addr[0] 9.74297e-05
2 *640:A 9.74297e-05
3 *640:A dbusout[2] 4.94583e-06
4 dbusout[13] *640:A 3.01668e-06
5 *433:A2 *640:A 8.43215e-07
6 *758:A *640:A 0
*RES
1 addr[0] *640:A 30.6911 
*END

*D_NET *393 0.000157434
*CONN
*P baudclk16 I
*I *639:A I *D BUF_X1
*CAP
1 baudclk16 7.87171e-05
2 *639:A 7.87171e-05
*RES
1 baudclk16 *639:A 25.6321 
*END

*D_NET *291 0.00195177
*CONN
*P clk I
*I *764:A I *D CLKBUF_X3
*CAP
1 clk 0.000932594
2 *764:A 0
3 *291:14 0.000932594
4 *291:14 serout 0
5 *291:14 *634:A 0
6 *291:14 *638:A 5.15179e-07
7 *291:14 *305:18 0
8 *291:14 *403:19 8.20931e-05
9 *291:14 *403:39 3.9783e-06
*RES
1 clk *291:14 45.8136 
2 *291:14 *764:A 10 
*END

*D_NET *403 0.0013382
*CONN
*I *768:A I *D CLKBUF_X3
*I *767:A I *D CLKBUF_X3
*I *764:Z O *D CLKBUF_X3
*CAP
1 *768:A 0
2 *767:A 0
3 *764:Z 0
4 *403:39 0.000240044
5 *403:19 0.000363852
6 *403:13 0.00060944
7 *403:6 5.54416e-06
8 *403:19 *406:10 3.01743e-06
9 *403:39 *407:23 0
10 *419:B1 *403:19 8.43342e-06
11 *92:8 *403:19 7.65279e-06
12 *108:16 *403:19 1.38569e-05
13 *157:34 *403:39 0
14 *291:14 *403:19 8.20931e-05
15 *291:14 *403:39 3.9783e-06
16 *305:18 *403:13 2.90566e-07
*RES
1 *764:Z *403:6 10 
2 *403:6 *403:13 5.46429 
3 *403:13 *403:19 22.8543 
4 *403:19 *767:A 10 
5 *403:13 *403:39 15.1586 
6 *403:39 *768:A 10 
*END

*D_NET *406 0.00339728
*CONN
*I *651:CK I *D DFF_X1
*I *650:CK I *D DFF_X1
*I *653:CK I *D DFF_X1
*I *657:CK I *D DFF_X1
*I *656:CK I *D DFF_X1
*I *769:A I *D INV_X1
*I *654:CK I *D DFF_X1
*I *641:CK I *D DFF_X1
*I *655:CK I *D DFF_X1
*I *767:Z O *D CLKBUF_X3
*CAP
1 *651:CK 2.85644e-05
2 *650:CK 0.000202376
3 *653:CK 1.65916e-05
4 *657:CK 2.2013e-05
5 *656:CK 9.03752e-05
6 *769:A 0
7 *654:CK 0
8 *641:CK 7.02199e-06
9 *655:CK 0.000126051
10 *767:Z 8.33971e-06
11 *406:101 0.000398189
12 *406:70 0.000210282
13 *406:62 0.000294835
14 *406:24 0.00026229
15 *406:18 0.000167307
16 *406:16 7.44135e-05
17 *406:10 0.000254414
18 *406:8 0.00021333
19 *417:A1 *406:16 0
20 *419:B1 *406:18 0
21 *419:B2 *406:16 4.4683e-06
22 *420:A2 *406:62 1.75824e-05
23 *422:A *406:62 3.33445e-06
24 *422:B2 *406:62 3.05089e-05
25 *427:A *650:CK 0
26 *427:A *651:CK 0
27 *428:B1 *406:101 1.20697e-05
28 *430:A *650:CK 0
29 *445:A2 *406:24 4.37217e-05
30 *446:B1 *653:CK 1.25215e-05
31 *446:B1 *406:8 6.48216e-07
32 *446:B1 *406:62 1.05415e-05
33 *475:A1 *406:101 1.39047e-05
34 *476:A *650:CK 2.37137e-05
35 *476:A *651:CK 3.66923e-05
36 *477:A1 *650:CK 7.19036e-06
37 *477:A2 *650:CK 1.19839e-05
38 *478:A *650:CK 1.02494e-05
39 *566:A1 *656:CK 0
40 *566:A2 *656:CK 0
41 *566:A2 *406:70 0
42 *569:A *656:CK 0
43 *638:A *650:CK 2.71958e-06
44 *641:D *641:CK 6.38328e-07
45 *650:D *650:CK 1.08561e-05
46 *653:D *653:CK 3.96981e-05
47 *653:D *406:62 7.19036e-06
48 *653:D *406:70 1.66988e-05
49 *655:D *655:CK 8.16741e-05
50 *657:D *406:70 4.07947e-05
51 *660:CK *406:8 0
52 *662:D *406:62 2.6197e-05
53 *662:CK *406:62 6.6958e-06
54 *666:D *656:CK 3.90891e-05
55 *87:28 *650:CK 0
56 *87:92 *406:62 1.75824e-05
57 *87:100 *406:62 1.23305e-05
58 *98:8 *406:101 4.45767e-06
59 *108:16 *406:10 5.14369e-05
60 *108:16 *406:16 4.77195e-05
61 *108:16 *406:18 4.88571e-05
62 *108:16 *406:24 9.98586e-05
63 *121:18 *653:CK 4.26902e-05
64 *121:18 *406:70 0.000155922
65 *121:22 *656:CK 0
66 *121:52 *406:16 1.87369e-06
67 *121:52 *406:62 8.27907e-06
68 *121:116 *650:CK 1.33639e-05
69 *335:8 *655:CK 0
70 *336:14 *655:CK 0
71 *336:157 *406:10 0
72 *336:157 *406:16 0
73 *336:157 *406:62 2.11815e-06
74 *379:8 *656:CK 0
75 *379:8 *657:CK 0
76 *403:19 *406:10 3.01743e-06
*RES
1 *767:Z *406:8 10.75 
2 *406:8 *406:10 5 
3 *406:10 *406:16 9.53572 
4 *406:16 *406:18 4.75 
5 *406:18 *406:24 21.1071 
6 *406:24 *655:CK 25.25 
7 *406:24 *641:CK 10.75 
8 *406:18 *654:CK 5 
9 *406:16 *769:A 5 
10 *406:10 *406:62 33 
11 *406:62 *406:70 19.1429 
12 *406:70 *656:CK 14.75 
13 *406:70 *657:CK 7.35714 
14 *406:62 *653:CK 13.5357 
15 *406:8 *406:101 21.5357 
16 *406:101 *650:CK 27.25 
17 *406:101 *651:CK 8.75 
*END

*D_NET *407 0.00315097
*CONN
*I *680:CK I *D DFF_X1
*I *677:CK I *D DFF_X1
*I *678:CK I *D DFF_X1
*I *679:CK I *D DFF_X1
*I *681:CK I *D DFF_X1
*I *676:CK I *D DFF_X1
*I *691:CK I *D DFF_X1
*I *652:CK I *D DFF_X1
*I *675:CK I *D DFF_X1
*I *674:CK I *D DFF_X1
*I *768:Z O *D CLKBUF_X3
*CAP
1 *680:CK 0.000123745
2 *677:CK 0
3 *678:CK 0
4 *679:CK 9.73887e-05
5 *681:CK 0
6 *676:CK 0.0002059
7 *691:CK 8.71307e-06
8 *652:CK 0.000155489
9 *675:CK 6.55232e-06
10 *674:CK 8.67585e-05
11 *768:Z 6.52998e-05
12 *407:103 0.000275103
13 *407:92 0.000250292
14 *407:86 0.000223849
15 *407:53 0.000267672
16 *407:36 0.000229614
17 *407:23 0.000103808
18 *407:6 0.000200722
19 *435:A2 *679:CK 0
20 *439:A1 *680:CK 7.16188e-07
21 *439:A2 *680:CK 7.72537e-06
22 *440:A *680:CK 4.2057e-05
23 *441:A2 *676:CK 1.72138e-05
24 *441:A2 *680:CK 3.23723e-07
25 *444:A2 *674:CK 2.83434e-06
26 *444:A2 *407:23 0
27 *446:B2 *652:CK 0
28 *519:A1 *676:CK 0
29 *521:A2 *407:103 1.13279e-05
30 *527:A1 *679:CK 5.43186e-05
31 *527:A1 *407:103 5.13318e-05
32 *530:A2 *680:CK 0
33 *531:A1 *676:CK 0
34 *533:A2 *676:CK 4.25296e-06
35 *534:A2 *407:53 0
36 *536:A1 *407:23 0.000118804
37 *536:A1 *407:36 3.53054e-05
38 *536:A2 *674:CK 0
39 *536:A2 *407:23 4.12796e-06
40 *537:A1 *674:CK 0
41 *537:A1 *407:6 0
42 *537:A2 *674:CK 6.15812e-06
43 *537:A2 *407:23 4.11963e-05
44 *539:A1 *674:CK 0
45 *607:A2 *407:103 2.30003e-05
46 *610:A *652:CK 3.02351e-05
47 *611:B2 *652:CK 0
48 *619:A2 *407:103 1.60494e-06
49 *652:D *652:CK 2.75346e-06
50 *675:D *652:CK 0
51 *677:D *680:CK 4.80114e-06
52 *679:D *679:CK 9.62051e-07
53 *681:D *407:103 6.38328e-07
54 *691:D *407:23 0
55 *691:D *407:36 0
56 *757:A *680:CK 1.68643e-06
57 *758:A *680:CK 4.45934e-05
58 *121:10 *652:CK 2.07643e-05
59 *156:50 *679:CK 0
60 *156:50 *407:103 0
61 *157:34 *407:86 0
62 *157:34 *407:92 0.000120658
63 *157:38 *676:CK 0
64 *157:52 *676:CK 0
65 *157:56 *676:CK 0
66 *157:56 *407:53 0
67 *157:101 *407:103 0
68 *167:10 *676:CK 6.34108e-06
69 *167:10 *407:92 4.92585e-05
70 *287:22 *407:103 2.07643e-05
71 *287:32 *680:CK 4.33502e-05
72 *287:32 *407:86 3.28663e-05
73 *287:32 *407:103 7.21602e-06
74 *354:8 *676:CK 3.96868e-05
75 *403:39 *407:23 0
76 *404:12 *675:CK 0
77 *404:12 *407:6 0
78 *404:33 *680:CK 1.18589e-06
*RES
1 *768:Z *407:6 8.75 
2 *407:6 *674:CK 23.8929 
3 *407:6 *407:23 15.4286 
4 *407:23 *675:CK 10.75 
5 *407:23 *407:36 7.28572 
6 *407:36 *652:CK 32.3572 
7 *407:36 *407:53 5.25 
8 *407:53 *691:CK 5.92857 
9 *407:53 *676:CK 37.7857 
10 *768:Z *407:86 8.25 
11 *407:86 *407:92 21.7857 
12 *407:92 *681:CK 5 
13 *407:92 *407:103 25.6786 
14 *407:103 *679:CK 21.4286 
15 *407:103 *678:CK 10 
16 *407:86 *677:CK 5 
17 *407:86 *680:CK 20.75 
*END

*D_NET *392 0.000243562
*CONN
*P dbusin[0] I
*I *638:A I *D BUF_X1
*CAP
1 dbusin[0] 9.26054e-05
2 *638:A 9.26054e-05
3 *638:A *650:CK 2.71958e-06
4 *477:A1 *638:A 7.19036e-06
5 *477:A2 *638:A 3.02372e-05
6 *478:A *638:A 2.75346e-06
7 *634:A *638:A 3.79999e-06
8 *100:8 *638:A 1.11357e-05
9 *291:14 *638:A 5.15179e-07
*RES
1 dbusin[0] *638:A 29.0107 
*END

*D_NET *391 0.000277513
*CONN
*P dbusin[1] I
*I *637:A I *D BUF_X1
*CAP
1 dbusin[1] 0.000121886
2 *637:A 0.000121886
3 *425:B1 *637:A 3.51536e-06
4 *484:A *637:A 1.35909e-05
5 *635:A *637:A 1.61196e-05
6 *636:A *637:A 5.15179e-07
*RES
1 dbusin[1] *637:A 32.4036 
*END

*D_NET *390 0.000260074
*CONN
*P dbusin[2] I
*I *636:A I *D BUF_X1
*CAP
1 dbusin[2] 8.81835e-05
2 *636:A 8.81835e-05
3 *636:A *637:A 5.15179e-07
4 dbusout[0] *636:A 5.24151e-05
5 *473:A2 *636:A 3.07768e-05
6 *481:A *636:A 0
*RES
1 dbusin[2] *636:A 25.8064 
*END

*D_NET *389 0.000500553
*CONN
*P dbusin[3] I
*I *635:A I *D BUF_X1
*CAP
1 dbusin[3] 0.000237031
2 *635:A 0.000237031
3 *635:A *637:A 1.61196e-05
4 dbusout[0] *635:A 0
5 *425:B1 *635:A 0
6 *473:A1 *635:A 0
7 *474:A *635:A 0
8 *484:A *635:A 3.1893e-06
9 *96:10 *635:A 0
10 *121:12 *635:A 0
11 *121:14 *635:A 0
12 *305:18 *635:A 7.18184e-06
*RES
1 dbusin[3] *635:A 38.4907 
*END

*D_NET *388 0.000327533
*CONN
*P dbusin[4] I
*I *634:A I *D BUF_X1
*CAP
1 dbusin[4] 0.000152077
2 *634:A 0.000152077
3 *634:A *638:A 3.79999e-06
4 *429:A2 *634:A 8.43215e-07
5 *469:A2 *634:A 1.42383e-06
6 *87:28 *634:A 2.61469e-06
7 *121:101 *634:A 5.16131e-07
8 *121:116 *634:A 1.41812e-05
9 *291:14 *634:A 0
*RES
1 dbusin[4] *634:A 25.8193 
*END

*D_NET *387 0.000122791
*CONN
*P dbusin[5] I
*I *633:A I *D BUF_X1
*CAP
1 dbusin[5] 6.13953e-05
2 *633:A 6.13953e-05
3 dbusout[11] *633:A 0
*RES
1 dbusin[5] *633:A 24.045 
*END

*D_NET *176 0.000199832
*CONN
*P dbusin[6] I
*I *545:A I *D BUF_X1
*CAP
1 dbusin[6] 8.91822e-05
2 *545:A 8.91822e-05
3 *545:A *475:A2 0
4 *545:A *304:12 7.14654e-06
5 *475:A1 *545:A 6.38328e-07
6 *484:A *545:A 1.36832e-05
*RES
1 dbusin[6] *545:A 28.5107 
*END

*D_NET *136 0.000502415
*CONN
*P dbusin[7] I
*I *484:A I *D BUF_X1
*CAP
1 dbusin[7] 0.000207921
2 *484:A 0.000207921
3 *484:A *545:A 1.36832e-05
4 *484:A *635:A 3.1893e-06
5 *484:A *637:A 1.35909e-05
6 *423:A1 *484:A 0
7 *425:A *484:A 0
8 *425:B1 *484:A 5.30588e-05
9 *425:B2 *484:A 2.83434e-06
10 *87:51 *484:A 2.16072e-07
*RES
1 dbusin[7] *484:A 40.9264 
*END

*D_NET *88 0.000210048
*CONN
*P dbusout[0] O
*I *413:Z O *D BUF_X1
*CAP
1 dbusout[0] 7.27366e-05
2 *413:Z 7.27366e-05
3 dbusout[0] *463:A 9.14266e-06
4 dbusout[0] *473:A2 3.01743e-06
5 dbusout[0] *635:A 0
6 dbusout[0] *636:A 5.24151e-05
*RES
1 *413:Z dbusout[0] 25.275 
*END

*D_NET *309 0.000206696
*CONN
*P dbusout[10] O
*I *702:Z O *D LOGIC0_X1
*CAP
1 dbusout[10] 0.000103348
2 *702:Z 0.000103348
*RES
1 *702:Z dbusout[10] 25.1225 
*END

*D_NET *310 0.000148517
*CONN
*P dbusout[11] O
*I *703:Z O *D LOGIC0_X1
*CAP
1 dbusout[11] 7.42587e-05
2 *703:Z 7.42587e-05
3 dbusout[11] *633:A 0
*RES
1 *703:Z dbusout[11] 24.0536 
*END

*D_NET *311 0.000188676
*CONN
*P dbusout[12] O
*I *704:Z O *D LOGIC0_X1
*CAP
1 dbusout[12] 8.72607e-05
2 *704:Z 8.72607e-05
3 dbusout[12] dbusout[8] 4.94583e-06
4 dbusout[12] dbusout[9] 9.20897e-06
*RES
1 *704:Z dbusout[12] 29.9054 
*END

*D_NET *312 0.000220131
*CONN
*P dbusout[13] O
*I *705:Z O *D LOGIC0_X1
*CAP
1 dbusout[13] 9.68745e-05
2 *705:Z 9.68745e-05
3 dbusout[13] dbusout[3] 2.1469e-06
4 dbusout[13] dbusout[6] 1.69135e-05
5 dbusout[13] *640:A 3.01668e-06
6 dbusout[13] *761:A 4.30477e-06
*RES
1 *705:Z dbusout[13] 25.1939 
*END

*D_NET *313 0.000211683
*CONN
*P dbusout[14] O
*I *706:Z O *D LOGIC0_X1
*CAP
1 dbusout[14] 0.000105841
2 *706:Z 0.000105841
*RES
1 *706:Z dbusout[14] 25.4082 
*END

*D_NET *314 0.000154375
*CONN
*P dbusout[15] O
*I *707:Z O *D LOGIC0_X1
*CAP
1 dbusout[15] 7.71873e-05
2 *707:Z 7.71873e-05
*RES
1 *707:Z dbusout[15] 24.375 
*END

*D_NET *85 0.000233273
*CONN
*P dbusout[1] O
*I *410:Z O *D BUF_X1
*CAP
1 dbusout[1] 0.000115515
2 *410:Z 0.000115515
3 dbusout[1] *443:B 2.24327e-06
4 dbusout[1] *461:A1 0
*RES
1 *410:Z dbusout[1] 30.0107 
*END

*D_NET *396 0.000164853
*CONN
*P dbusout[2] O
*I *757:Z O *D BUF_X1
*CAP
1 dbusout[2] 7.98743e-05
2 *757:Z 7.98743e-05
3 dbusout[2] dbusout[3] 0
4 dbusout[9] dbusout[2] 0
5 *434:A dbusout[2] 1.58812e-07
6 *640:A dbusout[2] 4.94583e-06
*RES
1 *757:Z dbusout[2] 26.5325 
*END

*D_NET *397 0.000197917
*CONN
*P dbusout[3] O
*I *758:Z O *D BUF_X1
*CAP
1 dbusout[3] 9.2143e-05
2 *758:Z 9.2143e-05
3 dbusout[3] dbusout[5] 7.24003e-06
4 dbusout[3] dbusout[6] 4.24378e-06
5 dbusout[13] dbusout[3] 2.1469e-06
6 dbusout[2] dbusout[3] 0
*RES
1 *758:Z dbusout[3] 25.2525 
*END

*D_NET *398 0.000140765
*CONN
*P dbusout[4] O
*I *759:Z O *D BUF_X1
*CAP
1 dbusout[4] 4.41696e-05
2 *759:Z 4.41696e-05
3 dbusout[4] dbusout[7] 5.24258e-05
*RES
1 *759:Z dbusout[4] 24.1396 
*END

*D_NET *399 0.000158077
*CONN
*P dbusout[5] O
*I *760:Z O *D BUF_X1
*CAP
1 dbusout[5] 4.52354e-05
2 *760:Z 4.52354e-05
3 dbusout[5] dbusout[6] 3.01668e-06
4 dbusout[5] dbusout[7] 5.24258e-05
5 dbusout[3] dbusout[5] 7.24003e-06
6 *762:A dbusout[5] 4.92317e-06
*RES
1 *760:Z dbusout[5] 24.8896 
*END

*D_NET *400 0.00025877
*CONN
*P dbusout[6] O
*I *761:Z O *D BUF_X1
*CAP
1 dbusout[6] 0.000115309
2 *761:Z 0.000115309
3 dbusout[13] dbusout[6] 1.69135e-05
4 dbusout[3] dbusout[6] 4.24378e-06
5 dbusout[5] dbusout[6] 3.01668e-06
6 *761:A dbusout[6] 3.9776e-06
*RES
1 *761:Z dbusout[6] 26.2568 
*END

*D_NET *401 0.000176826
*CONN
*P dbusout[7] O
*I *762:Z O *D BUF_X1
*CAP
1 dbusout[7] 3.3605e-05
2 *762:Z 3.3605e-05
3 dbusout[4] dbusout[7] 5.24258e-05
4 dbusout[5] dbusout[7] 5.24258e-05
5 *762:A dbusout[7] 4.76436e-06
*RES
1 *762:Z dbusout[7] 24.8539 
*END

*D_NET *322 0.00019953
*CONN
*P dbusout[8] O
*I *700:Z O *D LOGIC0_X1
*CAP
1 dbusout[8] 9.72921e-05
2 *700:Z 9.72921e-05
3 dbusout[12] dbusout[8] 4.94583e-06
*RES
1 *700:Z dbusout[8] 24.6225 
*END

*D_NET *323 0.000229163
*CONN
*P dbusout[9] O
*I *701:Z O *D LOGIC0_X1
*CAP
1 dbusout[9] 0.000109977
2 *701:Z 0.000109977
3 dbusout[9] dbusout[2] 0
4 dbusout[12] dbusout[9] 9.20897e-06
*RES
1 *701:Z dbusout[9] 28.0196 
*END

*D_NET *292 0.000163858
*CONN
*I *477:A2 I *D NAND2_X1
*I *638:Z O *D BUF_X1
*CAP
1 *477:A2 2.78588e-05
2 *638:Z 2.78588e-05
3 *477:A2 *638:A 3.02372e-05
4 *477:A2 *650:CK 1.19839e-05
5 *477:A1 *477:A2 2.89018e-05
6 *478:A *477:A2 2.29741e-05
7 *100:8 *477:A2 1.40436e-05
*RES
1 *638:Z *477:A2 24.8929 
*END

*D_NET *299 0.000108396
*CONN
*I *475:A2 I *D NAND2_X1
*I *637:Z O *D BUF_X1
*CAP
1 *475:A2 5.28211e-05
2 *637:Z 5.28211e-05
3 *475:A1 *475:A2 2.75346e-06
4 *545:A *475:A2 0
5 *87:51 *475:A2 0
*RES
1 *637:Z *475:A2 15.3571 
*END

*D_NET *300 0.000207433
*CONN
*I *473:A2 I *D NAND2_X1
*I *636:Z O *D BUF_X1
*CAP
1 *473:A2 6.12264e-05
2 *636:Z 6.12264e-05
3 *473:A2 *413:A 2.8572e-06
4 *473:A2 *424:A 3.38904e-05
5 *473:A2 *636:A 3.07768e-05
6 dbusout[0] *473:A2 3.01743e-06
7 *463:A *473:A2 0
8 *473:A1 *473:A2 1.26517e-05
9 *481:A *473:A2 1.78661e-06
*RES
1 *636:Z *473:A2 28.4643 
*END

*D_NET *301 0.000112023
*CONN
*I *471:A2 I *D NAND2_X1
*I *635:Z O *D BUF_X1
*CAP
1 *471:A2 5.25744e-05
2 *635:Z 5.25744e-05
3 *425:B1 *471:A2 0
4 *472:A *471:A2 1.21774e-06
5 *472:B1 *471:A2 2.56243e-06
6 *474:B1 *471:A2 0
7 *474:B2 *471:A2 0
8 *121:183 *471:A2 3.09411e-06
*RES
1 *635:Z *471:A2 15.3571 
*END

*D_NET *302 0.000375202
*CONN
*I *469:A2 I *D NAND2_X1
*I *634:Z O *D BUF_X1
*CAP
1 *469:A2 0.000143522
2 *634:Z 0.000143522
3 *469:A2 *429:A2 6.76378e-05
4 *469:A2 *634:A 1.42383e-06
5 *477:A1 *469:A2 0
6 *660:D *469:A2 0
7 *121:60 *469:A2 1.66988e-05
8 *121:66 *469:A2 2.39679e-06
9 *121:101 *469:A2 0
*RES
1 *634:Z *469:A2 35.25 
*END

*D_NET *303 0.000866458
*CONN
*I *467:A2 I *D NAND2_X1
*I *633:Z O *D BUF_X1
*CAP
1 *467:A2 3.79291e-05
2 *633:Z 0.000280757
3 *303:22 0.000318686
4 *467:A2 *336:14 0
5 *303:22 *563:A3 0
6 *303:22 *624:A 6.07968e-05
7 *303:22 *336:14 0
8 *303:22 *337:8 5.99936e-05
9 *303:22 *338:12 4.90338e-06
10 *455:A *303:22 5.56677e-06
11 *456:A1 *303:22 1.51469e-05
12 *459:A1 *303:22 1.04006e-05
13 *468:A *467:A2 0
14 *468:A *303:22 6.38328e-07
15 *468:B1 *467:A2 0
16 *647:D *303:22 2.55331e-06
17 *12:8 *303:22 5.58863e-05
18 *278:8 *303:22 1.32009e-05
*RES
1 *633:Z *303:22 49.3929 
2 *303:22 *467:A2 8.75 
*END

*D_NET *304 0.000748228
*CONN
*I *464:A2 I *D NAND2_X1
*I *545:Z O *D BUF_X1
*CAP
1 *464:A2 0
2 *545:Z 0.000262815
3 *304:12 0.000262815
4 *304:12 *420:A2 2.79111e-05
5 *304:12 *465:A 3.09143e-06
6 *304:12 *660:CK 7.35708e-05
7 *304:12 *336:144 0
8 *304:12 *336:157 0
9 *304:12 *336:161 8.08138e-05
10 *545:A *304:12 7.14654e-06
11 *87:61 *304:12 0
12 *121:35 *304:12 2.94173e-05
13 *121:52 *304:12 6.48216e-07
*RES
1 *545:Z *304:12 45.8572 
2 *304:12 *464:A2 5 
*END

*D_NET *305 0.000682583
*CONN
*I *569:B I *D MUX2_X1
*I *484:Z O *D BUF_X1
*CAP
1 *569:B 7.97268e-06
2 *484:Z 0.000240382
3 *305:18 0.000248354
4 *569:B *569:A 1.40196e-06
5 *305:18 *413:A 1.25057e-05
6 *305:18 *635:A 7.18184e-06
7 *305:18 *403:13 2.90566e-07
8 *657:D *305:18 2.87434e-05
9 *96:10 *305:18 3.49085e-06
10 *121:12 *305:18 8.07854e-06
11 *121:14 *305:18 3.43575e-05
12 *121:18 *305:18 8.98238e-05
13 *291:14 *305:18 0
*RES
1 *484:Z *305:18 49.7829 
2 *305:18 *569:B 5.75 
*END

*D_NET *350 0.000381052
*CONN
*I *610:A I *D INV_X1
*I *462:A2 I *D NOR2_X4
*I *481:Z O *D BUF_X1
*CAP
1 *610:A 5.01275e-05
2 *462:A2 0
3 *481:Z 9.51595e-05
4 *350:10 0.000145287
5 *610:A *461:A2 4.7875e-06
6 *610:A *652:CK 3.02351e-05
7 *350:10 *461:A2 5.54557e-05
8 *463:A *350:10 0
9 *120:10 *610:A 0
*RES
1 *481:Z *350:10 21.8214 
2 *350:10 *462:A2 10 
3 *350:10 *610:A 15.8214 
*END

*D_NET *360 0.000335111
*CONN
*I *461:A2 I *D NAND2_X1
*I *463:Z O *D BUF_X1
*CAP
1 *461:A2 0.000127071
2 *463:Z 0.000127071
3 *461:A1 *461:A2 8.43215e-07
4 *462:A1 *461:A2 1.74856e-05
5 *610:A *461:A2 4.7875e-06
6 *611:A *461:A2 2.39679e-06
7 *120:10 *461:A2 0
8 *350:10 *461:A2 5.54557e-05
*RES
1 *463:Z *461:A2 35.5357 
*END

*D_NET *361 0.000106991
*CONN
*I *668:D I *D DFF_X1
*I *432:Z O *D BUF_X1
*CAP
1 *668:D 5.34953e-05
2 *432:Z 5.34953e-05
3 *668:D *405:166 0
*RES
1 *432:Z *668:D 15.3571 
*END

*D_NET *308 0.000522958
*CONN
*I *413:A I *D BUF_X1
*I *446:ZN O *D OAI21_X1
*CAP
1 *413:A 0.000246865
2 *446:ZN 0.000246865
3 *413:A *424:A 1.14892e-05
4 *446:A *413:A 0
5 *463:A *413:A 1.52083e-06
6 *473:A1 *413:A 6.38328e-07
7 *473:A2 *413:A 2.8572e-06
8 *481:A *413:A 2.16072e-07
9 *121:12 *413:A 0
10 *305:18 *413:A 1.25057e-05
*RES
1 *446:ZN *413:A 45.0357 
*END

*D_NET *315 1.74261e-05
*CONN
*I *410:A I *D BUF_X1
*I *443:Z O *D MUX2_X1
*CAP
1 *410:A 8.71307e-06
2 *443:Z 8.71307e-06
*RES
1 *443:Z *410:A 10.9286 
*END

*D_NET *316 0.000240837
*CONN
*I *757:A I *D BUF_X1
*I *442:ZN O *D INV_X1
*CAP
1 *757:A 8.10033e-05
2 *442:ZN 8.10033e-05
3 *757:A *433:A1 3.90891e-05
4 *757:A *519:A2 0
5 *757:A *680:CK 1.68643e-06
6 *757:A *758:A 3.53463e-05
7 *442:A *757:A 2.70833e-06
8 *519:A1 *757:A 0
9 *680:D *757:A 0
*RES
1 *442:ZN *757:A 19.8571 
*END

*D_NET *317 0.00051976
*CONN
*I *758:A I *D BUF_X1
*I *440:ZN O *D INV_X1
*CAP
1 *758:A 0.000148227
2 *440:ZN 0.000148227
3 *758:A *640:A 0
4 *758:A *680:CK 4.45934e-05
5 *758:A *761:A 1.40196e-06
6 *758:A *762:A 0
7 *433:A2 *758:A 0
8 *440:A *758:A 0
9 *519:A1 *758:A 0
10 *521:A1 *758:A 0.000133366
11 *521:A2 *758:A 8.59803e-06
12 *680:D *758:A 0
13 *757:A *758:A 3.53463e-05
*RES
1 *440:ZN *758:A 39.5 
*END

*D_NET *318 0.000215932
*CONN
*I *759:A I *D BUF_X1
*I *438:ZN O *D INV_X1
*CAP
1 *759:A 6.40861e-05
2 *438:ZN 6.40861e-05
3 *759:A *435:A2 4.93397e-05
4 *759:A *760:A 0
5 *759:A *357:6 0
6 *436:A *759:A 0
7 *438:A *759:A 3.93732e-06
8 *522:A1 *759:A 3.25998e-05
9 *524:A1 *759:A 1.88334e-06
*RES
1 *438:ZN *759:A 27.9643 
*END

*D_NET *319 8.0518e-05
*CONN
*I *760:A I *D BUF_X1
*I *436:ZN O *D INV_X1
*CAP
1 *760:A 4.01509e-05
2 *436:ZN 4.01509e-05
3 *436:A *760:A 2.16072e-07
4 *438:A *760:A 0
5 *759:A *760:A 0
*RES
1 *436:ZN *760:A 14.2143 
*END

*D_NET *320 0.000168663
*CONN
*I *761:A I *D BUF_X1
*I *434:ZN O *D INV_X1
*CAP
1 *761:A 4.64446e-05
2 *434:ZN 4.64446e-05
3 *761:A dbusout[6] 3.9776e-06
4 *761:A *762:A 1.39839e-06
5 dbusout[13] *761:A 4.30477e-06
6 *434:A *761:A 1.77822e-05
7 *758:A *761:A 1.40196e-06
8 *287:12 *761:A 4.69092e-05
*RES
1 *434:ZN *761:A 27.1071 
*END

*D_NET *321 0.000348754
*CONN
*I *762:A I *D BUF_X1
*I *620:ZN O *D INV_X1
*CAP
1 *762:A 0.000137169
2 *620:ZN 0.000137169
3 *762:A dbusout[5] 4.92317e-06
4 *762:A dbusout[7] 4.76436e-06
5 *762:A *435:A2 0
6 *436:A *762:A 3.54695e-06
7 *521:A2 *762:A 0
8 *758:A *762:A 0
9 *761:A *762:A 1.39839e-06
10 *287:12 *762:A 3.64273e-05
11 *287:16 *762:A 9.89638e-06
12 *287:22 *762:A 1.34608e-05
*RES
1 *620:ZN *762:A 35.5357 
*END

*D_NET *362 1.74261e-05
*CONN
*I *763:A I *D BUF_X1
*I *613:ZN O *D OR2_X1
*CAP
1 *763:A 8.71307e-06
2 *613:ZN 8.71307e-06
*RES
1 *613:ZN *763:A 10.9286 
*END

*D_NET *404 0.000624055
*CONN
*I *441:A1 I *D NAND2_X1
*I *439:A1 I *D NAND2_X1
*I *444:A1 I *D NAND2_X1
*I *446:B2 I *D OAI21_X1
*I *765:Z O *D BUF_X1
*CAP
1 *441:A1 3.02513e-05
2 *439:A1 7.51355e-06
3 *444:A1 0
4 *446:B2 5.94797e-05
5 *765:Z 0.00017381
6 *404:33 0.000107442
7 *404:12 0.000163612
8 *439:A1 *680:CK 7.16188e-07
9 *446:B2 *652:CK 0
10 *404:12 *675:CK 0
11 *404:12 *407:6 0
12 *404:33 *680:CK 1.18589e-06
13 *439:A2 *439:A1 3.09143e-06
14 *439:A2 *441:A1 3.09143e-06
15 *439:A2 *404:33 0
16 *441:A2 *439:A1 2.39679e-06
17 *441:A2 *441:A1 8.43215e-07
18 *442:A *441:A1 0
19 *444:A2 *404:12 2.23871e-06
20 *446:A *446:B2 1.46756e-05
21 *446:B1 *446:B2 2.75346e-06
22 *528:A2 *404:33 0
23 *536:A2 *404:12 7.72792e-06
24 *537:A2 *404:12 8.67622e-06
25 *675:D *404:12 4.91213e-06
26 *157:38 *404:33 0
27 *287:32 *404:33 2.96379e-05
*RES
1 *765:Z *404:12 16.0357 
2 *404:12 *446:B2 11.6786 
3 *404:12 *444:A1 5 
4 *765:Z *404:33 12.75 
5 *404:33 *439:A1 6.25 
6 *404:33 *441:A1 8.53572 
*END

*D_NET *405 0.00953226
*CONN
*I *697:CK I *D DFF_X1
*I *695:CK I *D DFF_X1
*I *692:CK I *D DFF_X1
*I *693:CK I *D DFF_X1
*I *694:CK I *D DFF_X1
*I *696:CK I *D DFF_X1
*I *698:CK I *D DFF_X1
*I *699:CK I *D DFF_X1
*I *689:CK I *D DFF_X1
*I *688:CK I *D DFF_X1
*I *686:CK I *D DFF_X1
*I *690:CK I *D DFF_X1
*I *682:CK I *D DFF_X1
*I *672:CK I *D DFF_X1
*I *667:CK I *D DFF_X1
*I *669:CK I *D DFF_X1
*I *670:CK I *D DFF_X1
*I *671:CK I *D DFF_X1
*I *668:CK I *D DFF_X1
*I *687:CK I *D DFF_X1
*I *645:CK I *D DFF_X1
*I *644:CK I *D DFF_X1
*I *643:CK I *D DFF_X1
*I *642:CK I *D DFF_X1
*I *673:CK I *D DFF_X1
*I *685:CK I *D DFF_X1
*I *684:CK I *D DFF_X1
*I *683:CK I *D DFF_X1
*I *766:Z O *D BUF_X1
*CAP
1 *697:CK 0
2 *695:CK 1.50803e-05
3 *692:CK 0.000107192
4 *693:CK 0
5 *694:CK 1.39074e-05
6 *696:CK 5.42377e-06
7 *698:CK 0.000100116
8 *699:CK 0
9 *689:CK 0.000129764
10 *688:CK 0.000125049
11 *686:CK 5.43063e-06
12 *690:CK 1.93462e-05
13 *682:CK 9.58946e-05
14 *672:CK 0.0001057
15 *667:CK 5.69406e-06
16 *669:CK 4.37473e-05
17 *670:CK 7.54016e-06
18 *671:CK 0.000212239
19 *668:CK 2.94307e-05
20 *687:CK 0
21 *645:CK 4.93372e-05
22 *644:CK 1.61559e-05
23 *643:CK 5.12454e-06
24 *642:CK 5.29669e-05
25 *673:CK 2.04392e-05
26 *685:CK 1.44443e-05
27 *684:CK 0
28 *683:CK 0.000165952
29 *766:Z 0
30 *405:334 0.000177444
31 *405:323 0.000188459
32 *405:321 0.000258981
33 *405:306 0.000173917
34 *405:295 0.000170979
35 *405:255 0.000169407
36 *405:231 0.000209171
37 *405:220 0.00019963
38 *405:166 0.000319992
39 *405:153 0.000155872
40 *405:151 0.000137227
41 *405:145 0.000100402
42 *405:143 0.000123319
43 *405:141 0.00013479
44 *405:118 0.000209066
45 *405:105 0.000170379
46 *405:92 0.000173041
47 *405:77 0.00027395
48 *405:73 0.000268493
49 *405:69 0.000246815
50 *405:63 0.000346661
51 *405:59 0.00025265
52 *405:51 0.000220339
53 *405:49 0.000109063
54 *405:34 0.000271058
55 *405:23 0.000229244
56 *405:4 0.000238472
57 *483:A1 *689:CK 3.84423e-05
58 *483:A1 *405:69 1.72426e-05
59 *489:A1 *683:CK 0
60 *489:A2 *683:CK 0
61 *489:A2 *405:23 0
62 *490:A2 *683:CK 0
63 *490:A2 *405:23 8.70497e-06
64 *494:A2 *682:CK 0
65 *502:A2 *405:73 2.23871e-06
66 *503:A1 *405:69 0
67 *503:A2 *405:69 3.82997e-06
68 *504:A *405:255 0
69 *505:A2 *405:49 1.28122e-06
70 *505:A2 *405:59 1.50098e-05
71 *507:B1 *405:59 1.76665e-06
72 *507:B2 *405:59 7.30645e-06
73 *509:B *405:306 0
74 *509:B *405:321 0
75 *510:A *405:321 8.88497e-06
76 *511:A *405:323 0
77 *511:B *405:323 0
78 *513:A *692:CK 0
79 *513:A *405:334 4.9678e-06
80 *514:A *685:CK 2.39679e-06
81 *517:A *405:23 4.48232e-05
82 *517:A *405:34 8.30033e-05
83 *523:A2 *405:295 0
84 *523:A2 *405:306 0
85 *526:A2 *405:321 1.61249e-06
86 *538:A2 *692:CK 0
87 *540:A1 *405:118 2.51151e-05
88 *540:A3 *643:CK 0
89 *541:B *405:118 0
90 *543:A *689:CK 0
91 *556:B1 *671:CK 9.90646e-05
92 *558:A2 *670:CK 0
93 *558:A2 *671:CK 1.20875e-05
94 *560:A1 *671:CK 1.61417e-05
95 *560:A2 *671:CK 1.5641e-05
96 *588:A1 *405:34 9.24246e-06
97 *588:A2 *405:34 5.56848e-05
98 *593:A1 *689:CK 0
99 *593:A2 *405:69 1.40196e-06
100 *593:A3 *405:69 1.43806e-05
101 *593:A3 *405:143 0.000249317
102 *597:A2 *672:CK 0
103 *597:A2 *405:231 0
104 *597:A3 *405:143 5.67661e-05
105 *599:A *405:73 0
106 *599:A *405:143 8.14221e-05
107 *599:B1 *405:143 1.57711e-05
108 *604:A *688:CK 0
109 *604:B2 *689:CK 0
110 *606:A *405:63 1.1209e-05
111 *606:A *405:69 1.57087e-05
112 *606:B2 *405:63 0
113 *608:A1 *405:323 0
114 *608:A2 *405:323 0
115 *608:A2 *405:334 0
116 *617:A *667:CK 3.09143e-06
117 *617:A *672:CK 0
118 *617:A *405:151 1.97744e-05
119 *617:A *405:231 0
120 *617:B1 *669:CK 0
121 *617:B2 *405:143 1.46651e-05
122 *617:B2 *405:145 2.6099e-05
123 *617:B2 *405:151 1.84849e-05
124 *618:A *669:CK 0
125 *618:B2 *405:151 8.06325e-05
126 *625:A *686:CK 7.72537e-06
127 *625:A *405:73 9.57948e-06
128 *625:B *405:73 9.06043e-06
129 *629:A *682:CK 2.16072e-07
130 *642:D *405:92 0
131 *643:D *642:CK 3.90891e-05
132 *643:D *405:105 0
133 *643:D *405:118 0
134 *644:D *405:118 8.27554e-05
135 *645:D *645:CK 6.38328e-07
136 *667:D *405:151 8.06346e-05
137 *668:D *405:166 0
138 *669:D *669:CK 1.07429e-05
139 *669:D *405:151 1.29947e-05
140 *669:D *405:153 4.32319e-05
141 *669:D *405:166 8.43429e-06
142 *670:D *671:CK 4.6749e-05
143 *671:D *671:CK 0
144 *672:D *672:CK 6.38328e-07
145 *673:D *405:77 0
146 *682:D *682:CK 1.28122e-06
147 *684:D *683:CK 0
148 *684:D *405:23 1.28122e-06
149 *686:D *405:69 2.80752e-05
150 *686:D *405:73 7.72537e-06
151 *687:D *405:73 0
152 *687:D *405:77 6.38328e-07
153 *688:D *688:CK 6.38328e-07
154 *689:D *689:CK 6.38328e-07
155 *690:D *690:CK 6.34148e-05
156 *690:D *405:231 0
157 *692:D *692:CK 5.74951e-06
158 *692:D *405:334 0
159 *694:D *405:323 0
160 *694:D *405:334 0
161 *697:D *405:49 2.16578e-05
162 *697:D *405:295 0.000119619
163 *698:D *698:CK 6.38328e-07
164 *699:D *405:63 4.79658e-06
165 *1:14 *672:CK 0
166 *2:12 *673:CK 2.2331e-05
167 *2:12 *405:92 1.02238e-05
168 *17:10 *688:CK 8.14262e-05
169 *17:10 *405:255 1.66988e-05
170 *18:10 *686:CK 1.39839e-06
171 *18:10 *405:69 0
172 *21:10 *671:CK 0
173 *23:24 *672:CK 0
174 *26:8 *682:CK 0
175 *131:8 *689:CK 0
176 *132:6 *405:69 7.66905e-06
177 *132:19 *405:63 1.14251e-05
178 *132:36 *405:59 4.4596e-05
179 *132:36 *405:63 8.56389e-06
180 *132:115 *698:CK 0
181 *149:10 *405:73 0
182 *155:51 *405:321 3.84423e-05
183 *155:57 *405:321 6.97608e-05
184 *156:8 *405:34 2.72171e-06
185 *156:8 *405:49 2.00103e-05
186 *156:8 *405:295 0.00018405
187 *156:8 *405:306 5.1189e-05
188 *156:16 *696:CK 7.72792e-06
189 *222:6 *688:CK 0
190 *223:8 *689:CK 0
191 *283:12 *683:CK 0
192 *333:10 *405:118 0
193 *335:8 *405:118 2.48889e-05
194 *336:12 *645:CK 2.61827e-06
195 *336:14 *644:CK 1.39839e-06
196 *336:14 *645:CK 8.56032e-06
197 *364:21 *405:151 3.44203e-05
198 *369:12 *405:77 7.34533e-06
199 *373:8 *405:34 0.000107663
200 *373:8 *405:49 0.000103709
201 *373:23 *685:CK 0
202 *378:14 *682:CK 1.66988e-05
203 *378:14 *690:CK 6.47253e-05
204 *378:14 *405:231 7.19036e-06
205 *378:89 *405:143 0
206 *378:89 *405:255 0
207 *379:8 *692:CK 0
208 *380:10 *692:CK 0
209 *380:10 *405:334 0
210 *382:8 *405:321 0
211 *382:14 *405:321 6.74729e-06
212 *382:14 *405:323 0
213 *383:8 *405:321 0
214 *384:14 *405:295 0
215 *385:14 *696:CK 1.40196e-06
216 *385:14 *698:CK 0
*RES
1 *766:Z *405:4 5 
2 *405:4 *683:CK 21.6071 
3 *405:4 *405:23 18.2857 
4 *405:23 *684:CK 5 
5 *405:23 *405:34 28.2143 
6 *405:34 *685:CK 11.25 
7 *405:34 *405:49 19.3929 
8 *405:49 *405:51 0.75 
9 *405:51 *405:59 19.3929 
10 *405:59 *405:63 14.75 
11 *405:63 *405:69 20.6786 
12 *405:69 *405:73 12.3571 
13 *405:73 *405:77 20.75 
14 *405:77 *673:CK 12.9643 
15 *405:77 *405:92 11.4286 
16 *405:92 *642:CK 16.1786 
17 *405:92 *405:105 2.28572 
18 *405:105 *643:CK 10.75 
19 *405:105 *405:118 23.5714 
20 *405:118 *644:CK 6.67857 
21 *405:118 *645:CK 10.25 
22 *405:73 *687:CK 5 
23 *405:69 *405:141 5 
24 *405:141 *405:143 17.8929 
25 *405:143 *405:145 3.64286 
26 *405:145 *405:151 12.1071 
27 *405:151 *405:153 2.96429 
28 *405:153 *668:CK 12.2857 
29 *405:153 *405:166 15.25 
30 *405:166 *671:CK 33.8572 
31 *405:166 *670:CK 5.92857 
32 *405:151 *669:CK 14.75 
33 *405:145 *667:CK 10.75 
34 *405:143 *405:220 5 
35 *405:220 *672:CK 15.75 
36 *405:220 *405:231 14.25 
37 *405:231 *682:CK 19.5714 
38 *405:231 *690:CK 14.3929 
39 *405:141 *405:255 3.64286 
40 *405:255 *686:CK 10.75 
41 *405:255 *688:CK 24.5714 
42 *405:63 *689:CK 23.8929 
43 *405:59 *699:CK 5 
44 *405:51 *405:295 14.75 
45 *405:295 *698:CK 19.75 
46 *405:295 *405:306 3.64286 
47 *405:306 *696:CK 10.75 
48 *405:306 *405:321 21.3571 
49 *405:321 *405:323 10.25 
50 *405:323 *694:CK 6.60714 
51 *405:323 *405:334 7.03572 
52 *405:334 *693:CK 5 
53 *405:334 *692:CK 16.1786 
54 *405:321 *695:CK 6.60714 
55 *405:49 *697:CK 5 
*END

*D_NET *287 0.00214245
*CONN
*I *433:A2 I *D NAND2_X1
*I *435:A1 I *D NAND2_X1
*I *437:A1 I *D NAND2_X1
*I *619:A1 I *D NAND2_X1
*I *443:S I *D MUX2_X1
*I *461:A1 I *D NAND2_X1
*I *765:A I *D BUF_X1
*I *640:Z O *D BUF_X1
*CAP
1 *433:A2 2.57702e-05
2 *435:A1 0
3 *437:A1 2.02154e-05
4 *619:A1 0
5 *443:S 0
6 *461:A1 7.32229e-05
7 *765:A 7.57156e-06
8 *640:Z 0
9 *287:47 0.0002246
10 *287:32 0.000307468
11 *287:22 0.000219292
12 *287:16 9.90128e-05
13 *287:12 0.000118384
14 *287:4 0.00013613
15 *433:A2 *433:A1 3.51654e-06
16 *433:A2 *640:A 8.43215e-07
17 *433:A2 *758:A 0
18 *437:A1 *435:A2 1.14231e-05
19 *437:A1 *437:A2 3.09411e-06
20 *461:A1 *443:B 3.72225e-05
21 *461:A1 *461:A2 8.43215e-07
22 *461:A1 *611:A 1.19054e-05
23 *287:12 *761:A 4.69092e-05
24 *287:12 *762:A 3.64273e-05
25 *287:16 *762:A 9.89638e-06
26 *287:22 *762:A 1.34608e-05
27 *287:22 *407:103 2.07643e-05
28 *287:32 *619:A2 1.63646e-05
29 *287:32 *680:CK 4.33502e-05
30 *287:32 *359:10 2.09547e-05
31 *287:32 *404:33 2.96379e-05
32 *287:32 *407:86 3.28663e-05
33 *287:32 *407:103 7.21602e-06
34 *287:47 *443:B 0
35 *287:47 *611:A 7.72792e-06
36 *287:47 *351:12 4.97191e-06
37 dbusout[1] *461:A1 0
38 *434:A *287:12 1.1429e-05
39 *436:A *287:12 1.61913e-05
40 *436:A *287:16 9.49053e-07
41 *521:A1 *287:12 5.32089e-06
42 *521:A2 *437:A1 5.2025e-07
43 *522:A1 *437:A1 3.02009e-05
44 *522:A1 *287:22 4.18444e-05
45 *530:A1 *287:32 1.46216e-05
46 *530:A2 *287:32 0.000172389
47 *531:A1 *287:47 0
48 *612:A1 *287:47 1.21666e-05
49 *620:A *287:22 4.45934e-05
50 *691:D *287:47 0.000179916
51 *157:34 *765:A 0
52 *157:34 *287:32 0
53 *157:34 *287:47 0
54 *157:52 *287:47 0
55 *157:101 *287:22 7.16188e-07
56 *167:10 *287:32 2.05273e-05
*RES
1 *640:Z *287:4 5 
2 *287:4 *287:12 25.0357 
3 *287:12 *287:16 1.78571 
4 *287:16 *287:22 10.8214 
5 *287:22 *287:32 33.8214 
6 *287:32 *765:A 5.75 
7 *287:32 *287:47 29.1429 
8 *287:47 *461:A1 23.7143 
9 *287:47 *443:S 5 
10 *287:22 *619:A1 5 
11 *287:16 *437:A1 18.3929 
12 *287:12 *435:A1 5 
13 *287:4 *433:A2 7.67857 
*END

*D_NET *290 0.0004496
*CONN
*I *766:A I *D BUF_X1
*I *517:A I *D INV_X1
*I *639:Z O *D BUF_X1
*CAP
1 *766:A 0
2 *517:A 0.000152174
3 *639:Z 8.71307e-06
4 *290:6 0.000160887
5 *517:A *587:A2 0
6 *517:A *371:27 0
7 *517:A *405:23 4.48232e-05
8 *517:A *405:34 8.30033e-05
*RES
1 *639:Z *290:6 5.92857 
2 *290:6 *517:A 34.25 
3 *290:6 *766:A 5 
*END

*D_NET *324 0.000105776
*CONN
*I *430:A I *D INV_X1
*I *650:Q O *D DFF_X1
*CAP
1 *430:A 5.28879e-05
2 *650:Q 5.28879e-05
3 *430:A *650:CK 0
*RES
1 *650:Q *430:A 15.1786 
*END

*D_NET *325 0.000110243
*CONN
*I *427:A I *D INV_X1
*I *651:Q O *D DFF_X1
*CAP
1 *427:A 5.51213e-05
2 *651:Q 5.51213e-05
3 *427:A *650:CK 0
4 *427:A *651:CK 0
*RES
1 *651:Q *427:A 15.1786 
*END

*D_NET *326 0.000167017
*CONN
*I *424:A I *D INV_X1
*I *652:Q O *D DFF_X1
*CAP
1 *424:A 5.58154e-05
2 *652:Q 5.58154e-05
3 *413:A *424:A 1.14892e-05
4 *472:A *424:A 0
5 *473:A1 *424:A 6.03486e-06
6 *473:A2 *424:A 3.38904e-05
7 *474:A *424:A 2.75346e-06
8 *121:10 *424:A 1.21774e-06
*RES
1 *652:Q *424:A 26.9643 
*END

*D_NET *327 5.58919e-05
*CONN
*I *421:A I *D INV_X1
*I *653:Q O *D DFF_X1
*CAP
1 *421:A 2.54649e-05
2 *653:Q 2.54649e-05
3 *446:B1 *421:A 0
4 *472:B1 *421:A 1.86809e-06
5 *472:B2 *421:A 3.09411e-06
*RES
1 *653:Q *421:A 12.6786 
*END

*D_NET *328 0.000130265
*CONN
*I *418:A I *D INV_X1
*I *654:Q O *D DFF_X1
*CAP
1 *418:A 4.59445e-05
2 *654:Q 4.59445e-05
3 *470:A *418:A 3.83757e-05
*RES
1 *654:Q *418:A 15.3571 
*END

*D_NET *329 1.74261e-05
*CONN
*I *415:A I *D INV_X1
*I *655:Q O *D DFF_X1
*CAP
1 *415:A 8.71307e-06
2 *655:Q 8.71307e-06
3 *416:B1 *415:A 0
4 *468:B1 *415:A 0
*RES
1 *655:Q *415:A 10.9286 
*END

*D_NET *330 0.00022015
*CONN
*I *465:A I *D INV_X1
*I *656:Q O *D DFF_X1
*CAP
1 *465:A 8.65879e-05
2 *656:Q 8.65879e-05
3 *422:A *465:A 0
4 *663:D *465:A 3.19164e-07
5 *87:92 *465:A 0
6 *121:22 *465:A 4.35637e-05
7 *121:52 *465:A 0
8 *304:12 *465:A 3.09143e-06
*RES
1 *656:Q *465:A 20.4643 
*END

*D_NET *331 0.000313282
*CONN
*I *569:A I *D MUX2_X1
*I *566:A2 I *D OR2_X4
*I *657:Q O *D DFF_X1
*CAP
1 *569:A 3.81523e-05
2 *566:A2 9.17147e-05
3 *657:Q 0
4 *331:4 0.000129867
5 *566:A2 *656:CK 0
6 *566:A2 *406:70 0
7 *569:A *656:CK 0
8 *569:B *569:A 1.40196e-06
9 *657:D *566:A2 0
10 *666:D *566:A2 0
11 *121:22 *566:A2 3.90891e-05
12 *121:22 *569:A 1.30565e-05
*RES
1 *657:Q *331:4 5 
2 *331:4 *566:A2 25.1071 
3 *331:4 *569:A 9.60714 
*END

*D_NET *332 0.000276887
*CONN
*I *412:A2 I *D NAND2_X4
*I *561:B2 I *D OAI21_X1
*I *447:A I *D INV_X1
*I *641:Q O *D DFF_X1
*CAP
1 *412:A2 0
2 *561:B2 4.06003e-05
3 *447:A 0
4 *641:Q 6.57752e-05
5 *332:10 6.62241e-05
6 *332:8 9.1399e-05
7 *445:A1 *332:8 0
8 *448:A2 *332:10 3.88456e-06
9 *468:B1 *561:B2 0
10 *561:A *561:B2 2.96953e-06
11 *562:A *561:B2 3.55154e-06
12 *641:D *561:B2 1.76665e-06
13 *641:D *332:8 0
14 *86:14 *332:8 7.16188e-07
*RES
1 *641:Q *332:8 12.2143 
2 *332:8 *332:10 2.96429 
3 *332:10 *447:A 5 
4 *332:10 *561:B2 10.4643 
5 *332:8 *412:A2 5 
*END

*D_NET *333 0.000198078
*CONN
*I *540:A2 I *D NAND3_X1
*I *621:A I *D HA_X1
*I *642:Q O *D DFF_X1
*CAP
1 *540:A2 3.91084e-05
2 *621:A 0
3 *642:Q 4.13106e-05
4 *333:10 8.0419e-05
5 *540:A2 *540:A1 8.26038e-06
6 *540:A2 *540:A3 6.0887e-06
7 *540:A2 *621:B 1.5896e-05
8 *333:10 *405:118 0
9 *408:B *540:A2 0
10 *643:D *333:10 6.99525e-06
*RES
1 *642:Q *333:10 19.3214 
2 *333:10 *621:A 5 
3 *333:10 *540:A2 9.75 
*END

*D_NET *334 0.000143497
*CONN
*I *540:A3 I *D NAND3_X1
*I *621:B I *D HA_X1
*I *643:Q O *D DFF_X1
*CAP
1 *540:A3 1.80128e-05
2 *621:B 4.27436e-05
3 *643:Q 0
4 *334:4 6.07564e-05
5 *540:A3 *643:CK 0
6 *540:A2 *540:A3 6.0887e-06
7 *540:A2 *621:B 1.5896e-05
*RES
1 *643:Q *334:4 5 
2 *334:4 *621:B 9.75 
3 *334:4 *540:A3 7.17857 
*END

*D_NET *335 0.000446555
*CONN
*I *408:A I *D XOR2_X1
*I *540:A1 I *D NAND3_X1
*I *644:Q O *D DFF_X1
*CAP
1 *408:A 6.08825e-06
2 *540:A1 3.52704e-05
3 *644:Q 0.000107064
4 *335:8 0.000148422
5 *540:A1 *405:118 2.51151e-05
6 *335:8 *541:B 0
7 *335:8 *655:CK 0
8 *335:8 *405:118 2.48889e-05
9 *408:B *408:A 7.72792e-06
10 *408:B *540:A1 9.62051e-07
11 *540:A2 *540:A1 8.26038e-06
12 *644:D *335:8 8.27554e-05
13 *655:D *335:8 0
*RES
1 *644:Q *335:8 23.8214 
2 *335:8 *540:A1 14.3929 
3 *335:8 *408:A 10.75 
*END

*D_NET *336 0.00491644
*CONN
*I *662:CK I *D DFF_X1
*I *660:CK I *D DFF_X1
*I *661:CK I *D DFF_X1
*I *663:CK I *D DFF_X1
*I *665:CK I *D DFF_X1
*I *666:CK I *D DFF_X1
*I *664:CK I *D DFF_X1
*I *541:B I *D XNOR2_X1
*I *658:CK I *D DFF_X1
*I *659:CK I *D DFF_X1
*I *648:CK I *D DFF_X1
*I *649:CK I *D DFF_X1
*I *647:CK I *D DFF_X1
*I *646:CK I *D DFF_X1
*I *645:Q O *D DFF_X1
*CAP
1 *662:CK 3.40058e-05
2 *660:CK 0.000168869
3 *661:CK 0
4 *663:CK 0
5 *665:CK 8.87379e-06
6 *666:CK 0.000121246
7 *664:CK 9.4366e-06
8 *541:B 9.5553e-05
9 *658:CK 3.92858e-05
10 *659:CK 0.000113211
11 *648:CK 6.44228e-05
12 *649:CK 0
13 *647:CK 0.000189927
14 *646:CK 0
15 *645:Q 0
16 *336:161 0.000198421
17 *336:157 0.000156585
18 *336:144 0.000195141
19 *336:118 0.000204596
20 *336:114 0.00025225
21 *336:103 0.000152957
22 *336:64 0.000198217
23 *336:46 0.000134777
24 *336:44 0.000352407
25 *336:23 0.000458645
26 *336:14 0.000225116
27 *336:12 0.000341697
28 *336:6 0.000121275
29 *541:B *405:118 0
30 *647:CK *338:12 3.19164e-06
31 *648:CK *411:A2 0
32 *660:CK *426:A2 3.96215e-05
33 *660:CK *406:8 0
34 *662:CK *420:A2 4.97191e-06
35 *662:CK *406:62 6.6958e-06
36 *336:12 *645:CK 2.61827e-06
37 *336:14 *644:CK 1.39839e-06
38 *336:14 *645:CK 8.56032e-06
39 *336:14 *655:CK 0
40 *336:44 *411:A3 2.39679e-06
41 *336:46 *411:A2 2.07964e-05
42 *336:46 *411:A3 9.72715e-05
43 *336:114 *417:A2 0
44 *336:157 *420:A2 3.89107e-05
45 *336:157 *406:10 0
46 *336:157 *406:16 0
47 *336:157 *406:62 2.11815e-06
48 *416:A *336:12 0
49 *416:A *336:14 0
50 *416:B2 *664:CK 1.32323e-05
51 *416:B2 *336:114 3.66923e-05
52 *422:B2 *662:CK 1.87418e-05
53 *428:A *660:CK 7.62806e-06
54 *446:B1 *662:CK 6.0406e-05
55 *446:B1 *336:157 4.88546e-05
56 *454:A2 *647:CK 2.24822e-06
57 *454:A3 *647:CK 2.30029e-05
58 *455:A *647:CK 2.14856e-06
59 *457:A1 *647:CK 3.90769e-05
60 *458:A1 *647:CK 1.26998e-05
61 *458:A3 *647:CK 7.16188e-07
62 *458:A3 *336:44 2.84765e-06
63 *460:A1 *647:CK 6.19033e-06
64 *460:A2 *647:CK 0
65 *466:B2 *336:144 0
66 *467:A2 *336:14 0
67 *561:A *336:44 8.88497e-06
68 *613:A1 *658:CK 2.48248e-05
69 *613:A1 *336:44 0
70 *613:A1 *336:64 4.62359e-05
71 *615:A *666:CK 0
72 *615:B1 *336:144 0
73 *645:D *541:B 1.92163e-05
74 *645:D *336:12 0
75 *646:D *647:CK 0
76 *646:D *336:14 6.38328e-07
77 *646:D *336:23 0
78 *647:D *647:CK 1.97671e-05
79 *658:D *658:CK 3.25936e-06
80 *658:D *659:CK 9.83877e-06
81 *658:D *336:64 7.66675e-07
82 *659:D *659:CK 2.75346e-06
83 *660:D *660:CK 7.98822e-06
84 *665:D *665:CK 6.48216e-07
85 *665:D *666:CK 5.24905e-05
86 *665:D *336:118 3.81944e-05
87 *12:8 *647:CK 9.11897e-09
88 *12:8 *336:23 4.79202e-06
89 *86:6 *336:44 0
90 *86:14 *336:44 9.5257e-06
91 *87:10 *659:CK 6.12485e-06
92 *87:42 *660:CK 0
93 *87:51 *660:CK 0
94 *87:57 *660:CK 0
95 *87:57 *336:161 0
96 *87:100 *336:144 1.58219e-06
97 *87:100 *336:157 6.71089e-06
98 *87:102 *336:144 1.54362e-05
99 *87:108 *336:114 4.45934e-05
100 *87:108 *336:118 2.08098e-06
101 *87:108 *336:144 3.30244e-05
102 *110:10 *336:44 8.35175e-06
103 *112:10 *336:44 5.43594e-05
104 *121:35 *336:144 0
105 *124:8 *336:144 0
106 *303:22 *336:14 0
107 *304:12 *660:CK 7.35708e-05
108 *304:12 *336:144 0
109 *304:12 *336:157 0
110 *304:12 *336:161 8.08138e-05
111 *335:8 *541:B 0
*RES
1 *645:Q *336:6 10 
2 *336:6 *336:12 10.8929 
3 *336:12 *336:14 19.25 
4 *336:14 *646:CK 5 
5 *336:14 *336:23 3.85714 
6 *336:23 *647:CK 27.3929 
7 *336:23 *336:44 37.75 
8 *336:44 *336:46 10.25 
9 *336:46 *649:CK 5 
10 *336:46 *648:CK 11.3571 
11 *336:44 *336:64 11.3571 
12 *336:64 *659:CK 32.5357 
13 *336:64 *658:CK 14.3214 
14 *336:12 *541:B 26.1071 
15 *336:6 *336:103 11.3571 
16 *336:103 *664:CK 6.25 
17 *336:103 *336:114 14.25 
18 *336:114 *336:118 9.14286 
19 *336:118 *666:CK 23.2143 
20 *336:118 *665:CK 10.75 
21 *336:114 *336:144 12.4643 
22 *336:144 *663:CK 10 
23 *336:144 *336:157 16.1071 
24 *336:157 *336:161 9.32143 
25 *336:161 *661:CK 10 
26 *336:161 *660:CK 29.0714 
27 *336:157 *662:CK 10.75 
*END

*D_NET *337 0.000723225
*CONN
*I *563:A3 I *D NAND3_X1
*I *623:A I *D HA_X1
*I *459:A2 I *D NAND2_X1
*I *624:A I *D HA_X1
*I *646:Q O *D DFF_X1
*CAP
1 *563:A3 3.31374e-05
2 *623:A 5.15823e-05
3 *459:A2 3.89257e-05
4 *624:A 6.744e-05
5 *646:Q 7.21509e-05
6 *337:17 9.0508e-05
7 *337:8 0.000106454
8 *459:A2 *624:B 0
9 *563:A3 *563:A1 5.52959e-06
10 *623:A *624:B 0
11 *450:A1 *623:A 0
12 *451:A2 *623:A 0
13 *452:B *563:A3 0
14 *454:A2 *459:A2 0
15 *455:A *459:A2 2.38892e-05
16 *457:A1 *459:A2 7.72792e-06
17 *460:A2 *459:A2 1.04526e-05
18 *468:A *337:8 0
19 *564:A *563:A3 7.19234e-06
20 *622:A *459:A2 0
21 *622:A *623:A 0
22 *622:B *623:A 9.57492e-07
23 *622:B *624:A 6.74466e-06
24 *622:B *337:8 2.00206e-05
25 *110:12 *623:A 0
26 *116:10 *459:A2 1.78252e-06
27 *278:8 *563:A3 3.96215e-05
28 *278:8 *624:A 1.83182e-05
29 *303:22 *563:A3 0
30 *303:22 *624:A 6.07968e-05
31 *303:22 *337:8 5.99936e-05
*RES
1 *646:Q *337:8 14.1786 
2 *337:8 *624:A 10.7857 
3 *337:8 *337:17 5 
4 *337:17 *459:A2 14.3929 
5 *337:17 *623:A 15.0714 
6 *624:A *563:A3 14.75 
*END

*D_NET *338 0.00039458
*CONN
*I *563:A2 I *D NAND3_X1
*I *624:B I *D HA_X1
*I *456:A2 I *D NAND2_X1
*I *647:Q O *D DFF_X1
*CAP
1 *563:A2 2.77345e-05
2 *624:B 5.81669e-05
3 *456:A2 0
4 *647:Q 0
5 *338:12 0.000134196
6 *338:6 0.000103763
7 *456:A1 *624:B 2.08416e-06
8 *456:A1 *338:12 2.16072e-07
9 *457:A1 *624:B 1.08381e-05
10 *457:A1 *338:12 2.39679e-06
11 *457:A2 *624:B 6.31115e-06
12 *459:A2 *624:B 0
13 *623:A *624:B 0
14 *647:D *338:12 3.41146e-05
15 *647:CK *338:12 3.19164e-06
16 *116:10 *624:B 6.6637e-06
17 *303:22 *338:12 4.90338e-06
*RES
1 *647:Q *338:6 10 
2 *338:6 *338:12 14.0714 
3 *338:12 *456:A2 5 
4 *338:12 *624:B 21.25 
5 *338:6 *563:A2 12.9643 
*END

*D_NET *339 0.000861541
*CONN
*I *411:A2 I *D NOR3_X4
*I *449:A1 I *D NOR2_X1
*I *452:A I *D XNOR2_X1
*I *563:A1 I *D NAND3_X1
*I *648:Q O *D DFF_X1
*CAP
1 *411:A2 0.000125946
2 *449:A1 3.36264e-05
3 *452:A 3.1123e-06
4 *563:A1 3.06981e-05
5 *648:Q 8.0433e-05
6 *339:12 9.93725e-05
7 *339:10 0.000128054
8 *339:8 0.000235245
9 *450:A1 *339:12 3.65066e-06
10 *451:A1 *411:A2 0
11 *452:B *452:A 7.72537e-06
12 *452:B *563:A1 1.27666e-06
13 *453:A1 *449:A1 4.16281e-06
14 *563:A3 *563:A1 5.52959e-06
15 *565:A1 *449:A1 7.16188e-07
16 *648:D *339:8 5.11191e-06
17 *648:D *339:10 3.06715e-05
18 *648:D *339:12 2.64346e-05
19 *648:CK *411:A2 0
20 *649:D *411:A2 1.89775e-05
21 *113:10 *411:A2 0
22 *336:46 *411:A2 2.07964e-05
*RES
1 *648:Q *339:8 19.0714 
2 *339:8 *339:10 4.32143 
3 *339:10 *339:12 7.71429 
4 *339:12 *563:A1 13.5357 
5 *339:12 *452:A 10.75 
6 *339:10 *449:A1 13.75 
7 *339:8 *411:A2 24.9286 
*END

*D_NET *340 0.000739991
*CONN
*I *411:A3 I *D NOR3_X4
*I *564:B I *D XOR2_X1
*I *649:Q O *D DFF_X1
*CAP
1 *411:A3 7.83248e-05
2 *564:B 8.13984e-05
3 *649:Q 3.30349e-05
4 *340:8 0.000192758
5 *449:A2 *564:B 0.000157358
6 *449:A2 *340:8 6.41153e-05
7 *450:A1 *564:B 1.87553e-05
8 *565:A1 *564:B 1.45779e-05
9 *336:44 *411:A3 2.39679e-06
10 *336:46 *411:A3 9.72715e-05
*RES
1 *649:Q *340:8 15 
2 *340:8 *564:B 21.7857 
3 *340:8 *411:A3 20 
*END

*D_NET *341 6.77584e-05
*CONN
*I *613:A2 I *D OR2_X1
*I *658:Q O *D DFF_X1
*CAP
1 *613:A2 3.25025e-05
2 *658:Q 3.25025e-05
3 *613:A1 *613:A2 2.75346e-06
*RES
1 *658:Q *613:A2 13.5357 
*END

*D_NET *342 1.74261e-05
*CONN
*I *567:A2 I *D NAND2_X1
*I *659:Q O *D DFF_X1
*CAP
1 *567:A2 8.71307e-06
2 *659:Q 8.71307e-06
3 *431:A *567:A2 0
*RES
1 *659:Q *567:A2 10.9286 
*END

*D_NET *343 0.000212751
*CONN
*I *429:A2 I *D NAND2_X1
*I *660:Q O *D DFF_X1
*CAP
1 *429:A2 6.28982e-05
2 *660:Q 6.28982e-05
3 *429:A2 *634:A 8.43215e-07
4 *469:A2 *429:A2 6.76378e-05
5 *87:28 *429:A2 2.39679e-06
6 *87:35 *429:A2 8.09419e-06
7 *121:101 *429:A2 0
8 *121:116 *429:A2 7.98296e-06
*RES
1 *660:Q *429:A2 27.8929 
*END

*D_NET *344 0.000113753
*CONN
*I *426:A2 I *D NAND2_X1
*I *661:Q O *D DFF_X1
*CAP
1 *426:A2 3.35526e-05
2 *661:Q 3.35526e-05
3 *428:A *426:A2 0
4 *660:CK *426:A2 3.96215e-05
5 *87:42 *426:A2 6.38328e-07
6 *87:51 *426:A2 6.38784e-06
*RES
1 *661:Q *426:A2 14.6786 
*END

*D_NET *345 1.74261e-05
*CONN
*I *423:A2 I *D NAND2_X1
*I *662:Q O *D DFF_X1
*CAP
1 *423:A2 8.71307e-06
2 *662:Q 8.71307e-06
*RES
1 *662:Q *423:A2 10.9286 
*END

*D_NET *346 0.000237953
*CONN
*I *420:A2 I *D NAND2_X1
*I *663:Q O *D DFF_X1
*CAP
1 *420:A2 7.13657e-05
2 *663:Q 7.13657e-05
3 *420:A2 *406:62 1.75824e-05
4 *662:CK *420:A2 4.97191e-06
5 *87:59 *420:A2 0
6 *87:61 *420:A2 0
7 *87:92 *420:A2 1.87369e-06
8 *87:100 *420:A2 2.75346e-06
9 *121:52 *420:A2 1.21774e-06
10 *304:12 *420:A2 2.79111e-05
11 *336:157 *420:A2 3.89107e-05
*RES
1 *663:Q *420:A2 29.3214 
*END

*D_NET *347 9.87532e-05
*CONN
*I *417:A2 I *D NAND2_X1
*I *664:Q O *D DFF_X1
*CAP
1 *417:A2 4.73353e-05
2 *664:Q 4.73353e-05
3 *417:A1 *417:A2 1.21774e-06
4 *419:A *417:A2 2.86475e-06
5 *419:B1 *417:A2 0
6 *336:114 *417:A2 0
*RES
1 *664:Q *417:A2 14.6786 
*END

*D_NET *348 8.66875e-05
*CONN
*I *414:A2 I *D NAND2_X1
*I *665:Q O *D DFF_X1
*CAP
1 *414:A2 3.83152e-05
2 *665:Q 3.83152e-05
3 *416:B2 *414:A2 7.16188e-07
4 *87:108 *414:A2 9.3409e-06
*RES
1 *665:Q *414:A2 14.25 
*END

*D_NET *349 1.74261e-05
*CONN
*I *614:A2 I *D NAND2_X1
*I *666:Q O *D DFF_X1
*CAP
1 *614:A2 8.71307e-06
2 *666:Q 8.71307e-06
*RES
1 *666:Q *614:A2 10.9286 
*END

*D_NET *133 0.000175428
*CONN
*P rwbar I
*I *481:A I *D BUF_X1
*CAP
1 rwbar 6.55566e-05
2 *481:A 6.55566e-05
3 *481:A *413:A 2.16072e-07
4 *481:A *473:A2 1.78661e-06
5 *481:A *636:A 0
6 *463:A *481:A 4.23121e-05
*RES
1 rwbar *481:A 25.7964 
*END

*D_NET *351 0.000240164
*CONN
*I *443:A I *D MUX2_X1
*I *611:A I *D OAI21_X1
*I *691:Q O *D DFF_X1
*CAP
1 *443:A 0
2 *611:A 4.5998e-05
3 *691:Q 4.9905e-05
4 *351:12 9.5903e-05
5 *611:A *443:B 9.62051e-07
6 *611:A *461:A2 2.39679e-06
7 *351:12 *443:B 6.38328e-07
8 *461:A1 *611:A 1.19054e-05
9 *462:A1 *611:A 2.39679e-06
10 *534:A1 *611:A 6.38328e-07
11 *612:A1 *611:A 2.24822e-06
12 *612:A2 *611:A 9.8489e-06
13 *612:A2 *351:12 2.70833e-06
14 *157:56 *351:12 1.91498e-06
15 *287:47 *611:A 7.72792e-06
16 *287:47 *351:12 4.97191e-06
*RES
1 *691:Q *351:12 11.3929 
2 *351:12 *611:A 10.75 
3 *351:12 *443:A 5 
*END

*D_NET *352 0.000449063
*CONN
*I *537:A2 I *D NAND2_X1
*I *444:A2 I *D NAND2_X1
*I *674:Q O *D DFF_X1
*CAP
1 *537:A2 7.88699e-05
2 *444:A2 3.25656e-05
3 *674:Q 0
4 *352:4 0.000111436
5 *444:A2 *674:CK 2.83434e-06
6 *444:A2 *404:12 2.23871e-06
7 *444:A2 *407:23 0
8 *537:A2 *674:CK 6.15812e-06
9 *537:A2 *404:12 8.67622e-06
10 *537:A2 *407:23 4.11963e-05
11 *536:A1 *444:A2 0
12 *536:A2 *444:A2 0
13 *536:A2 *537:A2 0.000165089
14 *157:21 *537:A2 0
*RES
1 *674:Q *352:4 5 
2 *352:4 *444:A2 18.5357 
3 *352:4 *537:A2 27.1429 
*END

*D_NET *353 0.000348593
*CONN
*I *443:B I *D MUX2_X1
*I *534:A2 I *D NAND2_X1
*I *675:Q O *D DFF_X1
*CAP
1 *443:B 0.00011728
2 *534:A2 1.72425e-05
3 *675:Q 8.6064e-06
4 *353:8 0.000143129
5 *534:A2 *407:53 0
6 dbusout[1] *443:B 2.24327e-06
7 *461:A1 *443:B 3.72225e-05
8 *534:A1 *534:A2 7.40328e-06
9 *536:A1 *443:B 2.72417e-06
10 *536:A1 *353:8 3.48838e-06
11 *611:A *443:B 9.62051e-07
12 *612:A1 *443:B 0
13 *691:D *353:8 0
14 *120:10 *443:B 7.65279e-06
15 *287:47 *443:B 0
16 *351:12 *443:B 6.38328e-07
*RES
1 *675:Q *353:8 10.9286 
2 *353:8 *534:A2 11.75 
3 *353:8 *443:B 22.2143 
*END

*D_NET *354 0.000606946
*CONN
*I *531:A2 I *D NAND2_X1
*I *441:A2 I *D NAND2_X1
*I *676:Q O *D DFF_X1
*CAP
1 *531:A2 0
2 *441:A2 0.000123557
3 *676:Q 0.000107434
4 *354:8 0.000230991
5 *441:A2 *439:A1 2.39679e-06
6 *441:A2 *441:A1 8.43215e-07
7 *441:A2 *676:CK 1.72138e-05
8 *441:A2 *680:CK 3.23723e-07
9 *354:8 *676:CK 3.96868e-05
10 *440:A *441:A2 1.21774e-06
11 *442:A *441:A2 2.39679e-06
12 *530:A1 *441:A2 8.08846e-05
13 *167:10 *441:A2 0
*RES
1 *676:Q *354:8 23.1429 
2 *354:8 *441:A2 24.2143 
3 *354:8 *531:A2 10 
*END

*D_NET *355 0.00031156
*CONN
*I *528:A2 I *D NAND2_X1
*I *439:A2 I *D NAND2_X1
*I *677:Q O *D DFF_X1
*CAP
1 *528:A2 2.18955e-05
2 *439:A2 7.37259e-05
3 *677:Q 0
4 *355:4 9.56213e-05
5 *439:A2 *439:A1 3.09143e-06
6 *439:A2 *441:A1 3.09143e-06
7 *439:A2 *680:CK 7.72537e-06
8 *439:A2 *404:33 0
9 *528:A2 *404:33 0
10 *440:A *439:A2 3.88456e-06
11 *519:A1 *439:A2 4.69702e-07
12 *519:A1 *528:A2 6.74466e-06
13 *530:A1 *439:A2 9.40924e-05
14 *157:38 *528:A2 1.21774e-06
15 *167:10 *439:A2 0
*RES
1 *677:Q *355:4 5 
2 *355:4 *439:A2 24.75 
3 *355:4 *528:A2 7.67857 
*END

*D_NET *356 0.000167977
*CONN
*I *525:A2 I *D NAND2_X1
*I *437:A2 I *D NAND2_X1
*I *678:Q O *D DFF_X1
*CAP
1 *525:A2 2.318e-05
2 *437:A2 5.33263e-05
3 *678:Q 0
4 *356:4 7.65064e-05
5 *437:A1 *437:A2 3.09411e-06
6 *438:A *437:A2 2.16072e-07
7 *438:A *525:A2 0
8 *522:A1 *437:A2 2.88159e-06
9 *522:A1 *525:A2 6.37548e-06
10 *157:101 *525:A2 2.39679e-06
*RES
1 *678:Q *356:4 5 
2 *356:4 *437:A2 10.1786 
3 *356:4 *525:A2 7.67857 
*END

*D_NET *357 0.000231482
*CONN
*I *435:A2 I *D NAND2_X1
*I *522:A2 I *D NAND2_X1
*I *679:Q O *D DFF_X1
*CAP
1 *435:A2 6.70172e-05
2 *522:A2 0
3 *679:Q 8.71307e-06
4 *357:6 7.57303e-05
5 *435:A2 *679:CK 0
6 *437:A1 *435:A2 1.14231e-05
7 *522:A1 *435:A2 1.46978e-05
8 *524:A1 *435:A2 4.56073e-06
9 *759:A *435:A2 4.93397e-05
10 *759:A *357:6 0
11 *762:A *435:A2 0
*RES
1 *679:Q *357:6 5.92857 
2 *357:6 *522:A2 5 
3 *357:6 *435:A2 23.5357 
*END

*D_NET *358 0.000253241
*CONN
*I *519:A2 I *D NAND2_X1
*I *433:A1 I *D NAND2_X1
*I *680:Q O *D DFF_X1
*CAP
1 *519:A2 2.1682e-05
2 *433:A1 6.4885e-05
3 *680:Q 0
4 *358:4 8.6567e-05
5 *433:A2 *433:A1 3.51654e-06
6 *519:A1 *519:A2 8.43215e-07
7 *521:A1 *433:A1 3.66585e-05
8 *680:D *433:A1 0
9 *757:A *433:A1 3.90891e-05
10 *757:A *519:A2 0
*RES
1 *680:Q *358:4 5 
2 *358:4 *433:A1 23.75 
3 *358:4 *519:A2 7.17857 
*END

*D_NET *359 0.000559316
*CONN
*I *607:A2 I *D NAND2_X1
*I *619:A2 I *D NAND2_X1
*I *681:Q O *D DFF_X1
*CAP
1 *607:A2 6.76005e-05
2 *619:A2 4.59075e-05
3 *681:Q 2.94316e-05
4 *359:10 0.00014294
5 *607:A2 *407:103 2.30003e-05
6 *619:A2 *407:103 1.60494e-06
7 *530:A2 *619:A2 4.04742e-06
8 *607:A1 *607:A2 2.75346e-06
9 *609:A1 *607:A2 7.20018e-06
10 *681:D *607:A2 0
11 *157:34 *607:A2 0
12 *157:101 *607:A2 0
13 *157:101 *619:A2 3.89107e-05
14 *167:10 *619:A2 6.84274e-05
15 *167:10 *359:10 9.0173e-05
16 *287:32 *619:A2 1.63646e-05
17 *287:32 *359:10 2.09547e-05
*RES
1 *681:Q *359:10 15.75 
2 *359:10 *619:A2 17.3929 
3 *359:10 *607:A2 17.6786 
*END

*D_NET *122 0.000284864
*CONN
*P sel I
*I *463:A I *D BUF_X1
*CAP
1 sel 0.000115944
2 *463:A 0.000115944
3 *463:A *413:A 1.52083e-06
4 *463:A *473:A2 0
5 *463:A *481:A 4.23121e-05
6 *463:A *350:10 0
7 dbusout[0] *463:A 9.14266e-06
*RES
1 sel *463:A 27.4721 
*END

*D_NET *101 0.00012233
*CONN
*P serin I
*I *432:A I *D BUF_X1
*CAP
1 serin 6.1165e-05
2 *432:A 6.1165e-05
*RES
1 serin *432:A 23.775 
*END

*D_NET *402 0.000203669
*CONN
*P serout O
*I *763:Z O *D BUF_X1
*CAP
1 serout 0.000101835
2 *763:Z 0.000101835
3 *291:14 serout 0
*RES
1 *763:Z serout 29.2964 
*END

*D_NET *363 0.000937833
*CONN
*I *593:A3 I *D NAND3_X1
*I *617:B2 I *D AOI21_X1
*I *667:Q O *D DFF_X1
*CAP
1 *593:A3 0.000167268
2 *617:B2 9.84337e-05
3 *667:Q 0
4 *363:6 0.000265702
5 *593:A3 *500:A 6.3924e-06
6 *593:A3 *378:78 5.11574e-06
7 *593:A3 *378:89 0
8 *593:A3 *405:69 1.43806e-05
9 *593:A3 *405:143 0.000249317
10 *617:B2 *617:A 4.69891e-06
11 *617:B2 *405:143 1.46651e-05
12 *617:B2 *405:145 2.6099e-05
13 *617:B2 *405:151 1.84849e-05
14 *593:A2 *593:A3 8.26038e-06
15 *601:A *593:A3 0
16 *617:B1 *617:B2 1.82068e-05
17 *618:A *617:B2 6.50827e-06
18 *618:B2 *617:B2 1.70588e-05
19 *667:D *617:B2 1.72405e-05
*RES
1 *667:Q *363:6 10 
2 *363:6 *617:B2 23.0714 
3 *363:6 *593:A3 32.3929 
*END

*D_NET *364 0.000612537
*CONN
*I *617:A I *D AOI21_X1
*I *618:B1 I *D AOI21_X1
*I *669:D I *D DFF_X1
*I *668:Q O *D DFF_X1
*CAP
1 *617:A 8.93273e-05
2 *618:B1 5.44858e-06
3 *669:D 7.30277e-05
4 *668:Q 0
5 *364:21 0.000117567
6 *364:6 9.58184e-05
7 *617:A *667:CK 3.09143e-06
8 *617:A *672:CK 0
9 *617:A *405:151 1.97744e-05
10 *617:A *405:231 0
11 *669:D *669:CK 1.07429e-05
12 *669:D *405:151 1.29947e-05
13 *669:D *405:153 4.32319e-05
14 *669:D *405:166 8.43429e-06
15 *364:21 *405:151 3.44203e-05
16 *617:B2 *617:A 4.69891e-06
17 *618:A *618:B1 2.39679e-06
18 *618:B2 *617:A 5.65502e-05
19 *618:B2 *364:21 3.02351e-05
20 *667:D *617:A 4.77786e-06
*RES
1 *668:Q *364:6 10 
2 *364:6 *669:D 19.1429 
3 *364:6 *364:21 3.64286 
4 *364:21 *618:B1 10.75 
5 *364:21 *617:A 20.9286 
*END

*D_NET *365 1.74261e-05
*CONN
*I *616:A I *D INV_X1
*I *669:Q O *D DFF_X1
*CAP
1 *616:A 8.71307e-06
2 *669:Q 8.71307e-06
*RES
1 *669:Q *616:A 10.9286 
*END

*D_NET *366 0.000563873
*CONN
*I *575:A2 I *D NAND3_X1
*I *559:A2 I *D NAND3_X1
*I *670:Q O *D DFF_X1
*CAP
1 *575:A2 0.000126459
2 *559:A2 1.81311e-05
3 *670:Q 5.02459e-05
4 *366:10 0.000194836
5 *548:A1 *366:10 2.55787e-06
6 *549:A *575:A2 2.43548e-06
7 *549:B *575:A2 2.86077e-05
8 *550:A2 *575:A2 0
9 *551:A2 *575:A2 0
10 *559:A1 *559:A2 2.39679e-06
11 *559:A1 *366:10 2.30003e-05
12 *575:A1 *575:A2 2.98502e-05
13 *575:A3 *575:A2 2.75346e-06
14 *628:A *575:A2 1.07733e-05
15 *21:10 *559:A2 8.43215e-07
16 *21:10 *366:10 2.55787e-06
17 *21:16 *559:A2 0
18 *21:16 *575:A2 9.03397e-06
19 *178:12 *559:A2 2.96955e-05
20 *178:12 *575:A2 2.96955e-05
*RES
1 *670:Q *366:10 15.6786 
2 *366:10 *559:A2 12.3571 
3 *366:10 *575:A2 25.8571 
*END

*D_NET *367 0.000478331
*CONN
*I *571:A2 I *D NAND2_X1
*I *555:A I *D INV_X1
*I *671:Q O *D DFF_X1
*CAP
1 *571:A2 0.000128599
2 *555:A 5.73974e-05
3 *671:Q 0
4 *367:6 0.000185997
5 *546:A3 *571:A2 1.07733e-05
6 *556:A *555:A 4.51285e-05
7 *571:A1 *571:A2 1.21774e-06
8 *575:A1 *571:A2 0
9 *575:A3 *571:A2 0
10 *628:A *555:A 0
11 *628:A *571:A2 0
12 *628:B *571:A2 3.13574e-06
13 *22:10 *555:A 1.50849e-05
14 *22:10 *571:A2 2.62371e-06
15 *25:8 *571:A2 1.60494e-06
16 *198:10 *571:A2 2.67697e-05
*RES
1 *671:Q *367:6 10 
2 *367:6 *555:A 17.2143 
3 *367:6 *571:A2 24.6429 
*END

*D_NET *368 0.000438789
*CONN
*I *552:A2 I *D NAND3_X1
*I *572:A I *D INV_X1
*I *598:A1 I *D OR2_X1
*I *672:Q O *D DFF_X1
*CAP
1 *552:A2 0
2 *572:A 5.4507e-05
3 *598:A1 1.90595e-05
4 *672:Q 1.60338e-05
5 *368:25 8.84898e-05
6 *368:6 6.90762e-05
7 *598:A1 *598:A2 2.75346e-06
8 *552:A1 *572:A 2.39679e-06
9 *552:A1 *368:25 1.82068e-05
10 *553:A1 *368:25 2.23871e-06
11 *570:A1 *598:A1 9.97341e-06
12 *570:A1 *368:6 4.2112e-06
13 *570:A3 *598:A1 2.39679e-06
14 *570:A3 *368:25 1.21105e-05
15 *573:A2 *572:A 2.70833e-06
16 *1:14 *572:A 7.03713e-06
17 *23:24 *572:A 2.55787e-06
18 *23:24 *598:A1 1.1194e-05
19 *23:24 *368:6 2.49651e-05
20 *175:20 *598:A1 0
21 *175:20 *368:6 2.25683e-05
22 *175:24 *368:25 4.96057e-05
23 *175:26 *368:25 1.66988e-05
24 *178:8 *572:A 0
*RES
1 *672:Q *368:6 7.75 
2 *368:6 *598:A1 7.92857 
3 *368:6 *368:25 15.3929 
4 *368:25 *572:A 10.6786 
5 *368:25 *552:A2 5 
*END

*D_NET *369 0.000455363
*CONN
*I *598:A2 I *D OR2_X1
*I *570:A2 I *D NAND3_X1
*I *673:Q O *D DFF_X1
*CAP
1 *598:A2 2.70257e-05
2 *570:A2 0
3 *673:Q 0.000160595
4 *369:12 0.00018762
5 *369:12 *405:77 7.34533e-06
6 *570:A1 *598:A2 5.01029e-05
7 *570:A3 *598:A2 1.99211e-05
8 *598:A1 *598:A2 2.75346e-06
*RES
1 *673:Q *369:12 31.7143 
2 *369:12 *570:A2 5 
3 *369:12 *598:A2 9.75 
*END

*D_NET *370 0.00145399
*CONN
*I *630:A I *D HA_X1
*I *587:A3 I *D NAND3_X1
*I *631:A I *D HA_X1
*I *583:A2 I *D NAND2_X1
*I *495:A2 I *D NAND2_X1
*I *682:Q O *D DFF_X1
*CAP
1 *630:A 0
2 *587:A3 9.57811e-05
3 *631:A 6.52998e-06
4 *583:A2 5.7293e-05
5 *495:A2 0
6 *682:Q 8.17064e-05
7 *370:51 0.000134484
8 *370:27 0.00014076
9 *370:18 0.000155803
10 *370:12 0.000199275
11 *583:A2 *487:A2 5.94783e-07
12 *583:A2 *583:A1 1.21774e-06
13 *583:A2 *371:27 5.89886e-05
14 *587:A3 *485:A 2.52965e-06
15 *587:A3 *487:A2 2.87703e-06
16 *587:A3 *492:A2 0
17 *587:A3 *587:A1 1.68643e-06
18 *587:A3 *587:A2 2.39679e-06
19 *587:A3 *378:44 8.94571e-06
20 *631:A *371:27 4.31185e-06
21 *370:12 *378:14 2.23415e-06
22 *370:12 *378:20 3.76527e-05
23 *370:18 *491:A2 0
24 *370:18 *494:A3 0
25 *370:18 *378:20 0.000107413
26 *370:27 *492:A2 4.74904e-06
27 *370:27 *631:B 1.25215e-05
28 *370:27 *371:8 2.1855e-05
29 *370:27 *371:27 3.37286e-06
30 *370:51 *378:44 1.07733e-05
31 *487:A1 *583:A2 1.045e-05
32 *487:A1 *631:A 2.75346e-06
33 *487:A3 *583:A2 4.24423e-05
34 *487:A3 *631:A 6.40668e-06
35 *491:A3 *370:18 2.54776e-05
36 *492:A1 *587:A3 0
37 *494:A1 *370:18 8.35175e-06
38 *494:A2 *370:18 0
39 *495:A1 *370:27 7.07065e-05
40 *496:A2 *370:27 2.70833e-06
41 *584:A *583:A2 0
42 *584:A *587:A3 9.57492e-07
43 *586:A3 *587:A3 2.23415e-06
44 *589:A1 *587:A3 0
45 *589:A2 *587:A3 0
46 *595:A3 *370:12 1.045e-05
47 *596:A2 *370:12 0
48 *629:A *370:51 1.32348e-05
49 *629:B *587:A3 1.32323e-05
50 *629:B *370:51 2.44202e-05
51 *135:8 *370:12 2.13573e-06
52 *135:10 *370:12 6.08869e-06
53 *135:38 *370:12 2.75402e-05
54 *137:8 *583:A2 0
55 *137:8 *587:A3 2.73686e-05
56 *283:12 *370:27 1.28122e-06
*RES
1 *682:Q *370:12 19.6786 
2 *370:12 *370:18 16 
3 *370:18 *495:A2 5 
4 *370:18 *370:27 10.1786 
5 *370:27 *583:A2 23.0357 
6 *370:27 *631:A 6.25 
7 *370:12 *370:51 10.75 
8 *370:51 *587:A3 16.1786 
9 *370:51 *630:A 5 
*END

*D_NET *371 0.000757097
*CONN
*I *631:B I *D HA_X1
*I *587:A2 I *D NAND3_X1
*I *583:A1 I *D NAND2_X1
*I *492:A2 I *D NAND2_X1
*I *683:Q O *D DFF_X1
*CAP
1 *631:B 6.48637e-06
2 *587:A2 4.87789e-05
3 *583:A1 3.79932e-06
4 *492:A2 3.15825e-05
5 *683:Q 2.62488e-05
6 *371:27 0.000118617
7 *371:14 0.000113952
8 *371:8 4.90662e-05
9 *583:A1 *372:12 7.72537e-06
10 *587:A2 *489:A2 3.22858e-06
11 *587:A2 *587:A1 2.39679e-06
12 *587:A2 *372:12 9.71935e-06
13 *587:A2 *372:25 1.03187e-05
14 *371:27 *489:A2 1.55645e-05
15 *487:A1 *371:27 4.86855e-05
16 *487:A3 *631:B 7.72792e-06
17 *487:A3 *371:8 0
18 *487:A3 *371:14 4.18985e-05
19 *489:A1 *631:B 1.21774e-06
20 *489:A1 *371:8 6.15405e-06
21 *489:A1 *371:14 4.92863e-06
22 *490:A1 *371:27 0
23 *492:A1 *492:A2 9.09239e-06
24 *495:A1 *492:A2 2.30029e-05
25 *517:A *587:A2 0
26 *517:A *371:27 0
27 *583:A2 *583:A1 1.21774e-06
28 *583:A2 *371:27 5.89886e-05
29 *586:A1 *587:A2 5.46432e-05
30 *587:A3 *492:A2 0
31 *587:A3 *587:A2 2.39679e-06
32 *631:A *371:27 4.31185e-06
33 *140:10 *371:14 2.84765e-06
34 *370:27 *492:A2 4.74904e-06
35 *370:27 *631:B 1.25215e-05
36 *370:27 *371:8 2.1855e-05
37 *370:27 *371:27 3.37286e-06
*RES
1 *683:Q *371:8 8.17857 
2 *371:8 *371:14 12.2857 
3 *371:14 *492:A2 8.75 
4 *371:14 *371:27 14.5357 
5 *371:27 *583:A1 10.75 
6 *371:27 *587:A2 16.4286 
7 *371:8 *631:B 6.25 
*END

*D_NET *372 0.000606169
*CONN
*I *586:A2 I *D NAND3_X1
*I *587:A1 I *D NAND3_X1
*I *485:A I *D INV_X1
*I *489:A2 I *D NAND2_X1
*I *684:Q O *D DFF_X1
*CAP
1 *586:A2 1.69118e-05
2 *587:A1 6.71979e-06
3 *485:A 6.29936e-06
4 *489:A2 7.17248e-05
5 *684:Q 5.04126e-05
6 *372:36 3.91764e-05
7 *372:25 3.48166e-05
8 *372:12 0.00013511
9 *489:A2 *487:A2 1.70391e-05
10 *489:A2 *683:CK 0
11 *489:A2 *405:23 0
12 *586:A2 *487:A2 4.62745e-06
13 *372:25 *487:A2 1.07992e-05
14 *372:36 *487:A2 1.01993e-05
15 *489:A1 *489:A2 7.72792e-06
16 *490:A1 *489:A2 2.75346e-06
17 *490:A2 *489:A2 2.13573e-06
18 *583:A1 *372:12 7.72537e-06
19 *584:A *485:A 3.09411e-06
20 *584:A *372:12 8.43215e-07
21 *586:A1 *586:A2 4.18985e-05
22 *586:A1 *372:25 1.72405e-05
23 *586:A1 *372:36 5.48953e-05
24 *586:A3 *586:A2 1.3515e-05
25 *586:A3 *587:A1 2.52965e-06
26 *587:A2 *489:A2 3.22858e-06
27 *587:A2 *587:A1 2.39679e-06
28 *587:A2 *372:12 9.71935e-06
29 *587:A2 *372:25 1.03187e-05
30 *587:A3 *485:A 2.52965e-06
31 *587:A3 *587:A1 1.68643e-06
32 *588:A1 *372:12 0
33 *589:A2 *586:A2 2.52965e-06
34 *371:27 *489:A2 1.55645e-05
*RES
1 *684:Q *372:12 15.5357 
2 *372:12 *489:A2 18.0714 
3 *372:12 *372:25 2.67857 
4 *372:25 *485:A 10.75 
5 *372:25 *372:36 2.96429 
6 *372:36 *587:A1 10.75 
7 *372:36 *586:A2 13.0357 
*END

*D_NET *373 0.000711663
*CONN
*I *591:A2 I *D NAND2_X1
*I *585:A I *D INV_X1
*I *588:A2 I *D NAND2_X1
*I *685:Q O *D DFF_X1
*CAP
1 *591:A2 3.67559e-06
2 *585:A 1.74458e-05
3 *588:A2 1.86966e-05
4 *685:Q 4.2335e-05
5 *373:23 7.20767e-05
6 *373:8 0.000111987
7 *588:A2 *405:34 5.56848e-05
8 *373:8 *405:34 0.000107663
9 *373:8 *405:49 0.000103709
10 *373:23 *685:CK 0
11 *514:A *591:A2 0
12 *514:A *373:8 9.44188e-05
13 *514:A *373:23 0
14 *588:A1 *588:A2 3.10804e-05
15 *588:A1 *373:23 0
16 *589:A2 *585:A 7.27357e-06
17 *589:A2 *591:A2 7.16188e-07
18 *589:A2 *373:23 6.47615e-06
19 *591:A1 *591:A2 2.75346e-06
20 *595:A2 *585:A 0
21 *685:D *373:23 5.75407e-06
22 *156:8 *588:A2 5.39412e-06
23 *156:8 *373:8 2.45222e-05
*RES
1 *685:Q *373:8 21.1071 
2 *373:8 *588:A2 13.7143 
3 *373:8 *373:23 10.75 
4 *373:23 *585:A 7.10714 
5 *373:23 *591:A2 5.75 
*END

*D_NET *374 0.000248299
*CONN
*I *602:A2 I *D NAND3_X1
*I *626:A I *D HA_X1
*I *686:Q O *D DFF_X1
*CAP
1 *602:A2 0
2 *626:A 2.94068e-05
3 *686:Q 3.82231e-05
4 *374:6 6.76299e-05
5 *626:A *499:A1 0
6 *626:A *602:A1 4.45934e-05
7 *626:A *602:A3 4.4061e-05
8 *626:A *626:B 1.28389e-05
9 *374:6 *602:A1 2.39679e-06
10 *625:A *374:6 0
11 *688:D *374:6 0
12 *18:10 *374:6 0
13 *222:6 *374:6 9.14865e-06
*RES
1 *686:Q *374:6 9.25 
2 *374:6 *626:A 10.2143 
3 *374:6 *602:A2 5 
*END

*D_NET *375 0.000388772
*CONN
*I *602:A3 I *D NAND3_X1
*I *626:B I *D HA_X1
*I *625:B I *D HA_X1
*I *687:Q O *D DFF_X1
*CAP
1 *602:A3 2.03073e-05
2 *626:B 3.60576e-05
3 *625:B 6.21791e-05
4 *687:Q 0
5 *375:25 9.53626e-05
6 *375:6 0.000101177
7 *625:B *405:73 9.06043e-06
8 *625:A *625:B 7.72792e-06
9 *626:A *602:A3 4.4061e-05
10 *626:A *626:B 1.28389e-05
*RES
1 *687:Q *375:6 10 
2 *375:6 *625:B 17.5357 
3 *375:6 *375:25 9.32143 
4 *375:25 *626:B 9.60714 
5 *375:25 *602:A3 9.25 
*END

*D_NET *376 0.000609358
*CONN
*I *499:A1 I *D NOR2_X1
*I *602:A1 I *D NAND3_X1
*I *497:A1 I *D NAND2_X1
*I *688:Q O *D DFF_X1
*CAP
1 *499:A1 5.40375e-06
2 *602:A1 8.47529e-05
3 *497:A1 0
4 *688:Q 0.000127132
5 *376:21 0.000117172
6 *376:10 0.000154148
7 *497:A2 *602:A1 3.02351e-05
8 *497:A2 *376:21 2.57414e-05
9 *498:A *376:10 0
10 *501:A1 *376:10 0
11 *501:A2 *602:A1 0
12 *626:A *499:A1 0
13 *626:A *602:A1 4.45934e-05
14 *688:D *602:A1 0
15 *20:8 *602:A1 1.77822e-05
16 *374:6 *602:A1 2.39679e-06
*RES
1 *688:Q *376:10 23.0714 
2 *376:10 *497:A1 10 
3 *376:10 *376:21 3.71429 
4 *376:21 *602:A1 20.6071 
5 *376:21 *499:A1 10.75 
*END

*D_NET *377 0.000176394
*CONN
*I *479:A1 I *D NOR2_X2
*I *603:A I *D INV_X1
*I *689:Q O *D DFF_X1
*CAP
1 *479:A1 7.00583e-06
2 *603:A 4.41166e-05
3 *689:Q 3.70746e-05
4 *377:8 8.8197e-05
5 *479:A2 *377:8 0
6 *604:B1 *603:A 0
7 *689:D *603:A 0
8 *689:D *377:8 0
*RES
1 *689:Q *377:8 8.85714 
2 *377:8 *603:A 9.71429 
3 *377:8 *479:A1 6.25 
*END

*D_NET *378 0.00278422
*CONN
*I *604:A I *D OAI21_X1
*I *503:A1 I *D NAND2_X1
*I *500:A I *D INV_X1
*I *487:A2 I *D NAND3_X1
*I *590:A2 I *D NAND3_X1
*I *491:A2 I *D NAND3_X1
*I *494:A3 I *D NAND3_X1
*I *690:Q O *D DFF_X1
*CAP
1 *604:A 9.54252e-05
2 *503:A1 6.83949e-06
3 *500:A 5.32475e-05
4 *487:A2 0.000120558
5 *590:A2 4.347e-05
6 *491:A2 1.44381e-05
7 *494:A3 6.29709e-05
8 *690:Q 0
9 *378:89 0.000193331
10 *378:78 0.000213087
11 *378:44 0.000249496
12 *378:20 0.000116656
13 *378:14 0.000294358
14 *378:6 0.000238416
15 *503:A1 *405:69 0
16 *604:A *688:CK 0
17 *378:14 *682:CK 1.66988e-05
18 *378:14 *690:CK 6.47253e-05
19 *378:14 *405:231 7.19036e-06
20 *378:89 *405:143 0
21 *378:89 *405:255 0
22 *486:A *487:A2 1.55581e-05
23 *487:A1 *487:A2 4.01547e-05
24 *487:A1 *590:A2 2.96955e-05
25 *487:A3 *487:A2 2.81073e-05
26 *489:A2 *487:A2 1.70391e-05
27 *491:A1 *491:A2 1.74934e-05
28 *491:A1 *494:A3 2.20333e-05
29 *494:A1 *494:A3 5.05227e-06
30 *494:A1 *378:20 2.84765e-06
31 *494:A2 *494:A3 6.92191e-05
32 *495:A1 *491:A2 6.38328e-07
33 *496:A1 *494:A3 2.75346e-06
34 *496:A2 *494:A3 0
35 *503:A2 *503:A1 8.43215e-07
36 *504:A *378:89 4.29819e-05
37 *515:A3 *590:A2 0
38 *583:A2 *487:A2 5.94783e-07
39 *586:A2 *487:A2 4.62745e-06
40 *586:A3 *487:A2 1.52083e-06
41 *587:A3 *487:A2 2.87703e-06
42 *587:A3 *378:44 8.94571e-06
43 *589:A2 *487:A2 3.19164e-07
44 *590:A1 *590:A2 6.23711e-05
45 *590:A3 *590:A2 7.53491e-05
46 *591:A1 *487:A2 3.05041e-06
47 *593:A2 *378:89 0
48 *593:A3 *500:A 6.3924e-06
49 *593:A3 *378:78 5.11574e-06
50 *593:A3 *378:89 0
51 *596:A2 *378:14 0
52 *597:A2 *378:14 7.93012e-05
53 *599:A *500:A 2.39679e-06
54 *599:B1 *500:A 0
55 *600:A1 *500:A 0
56 *600:A1 *378:78 0
57 *600:A2 *500:A 0
58 *604:B1 *604:A 2.39679e-06
59 *605:A *604:A 0
60 *629:A *494:A3 0
61 *629:A *378:14 1.70233e-05
62 *629:A *378:44 6.37281e-06
63 *682:D *494:A3 8.52851e-05
64 *690:D *378:14 4.43868e-06
65 *17:10 *604:A 0
66 *17:10 *378:89 0
67 *18:10 *503:A1 3.09143e-06
68 *18:10 *604:A 0
69 *18:10 *378:89 0
70 *131:8 *604:A 0
71 *135:10 *378:20 2.9073e-05
72 *135:38 *378:14 2.83081e-06
73 *135:38 *378:44 1.98255e-05
74 *135:47 *487:A2 2.52965e-06
75 *135:47 *378:44 2.12356e-05
76 *137:23 *487:A2 1.39834e-05
77 *137:23 *590:A2 2.52965e-06
78 *140:8 *590:A2 1.9871e-06
79 *175:14 *378:14 0
80 *175:14 *378:78 0
81 *175:20 *500:A 0
82 *222:6 *604:A 5.43615e-05
83 *370:12 *378:14 2.23415e-06
84 *370:12 *378:20 3.76527e-05
85 *370:18 *491:A2 0
86 *370:18 *494:A3 0
87 *370:18 *378:20 0.000107413
88 *370:51 *378:44 1.07733e-05
89 *372:25 *487:A2 1.07992e-05
90 *372:36 *487:A2 1.01993e-05
*RES
1 *690:Q *378:6 10 
2 *378:6 *378:14 25.25 
3 *378:14 *378:20 17.7143 
4 *378:20 *494:A3 24.8214 
5 *378:20 *491:A2 6.75 
6 *378:14 *378:44 11.25 
7 *378:44 *590:A2 22.1071 
8 *378:44 *487:A2 31.6071 
9 *378:6 *378:78 12.3929 
10 *378:78 *500:A 10.25 
11 *378:78 *378:89 14.75 
12 *378:89 *503:A1 10.75 
13 *378:89 *604:A 20.9286 
*END

*D_NET *379 0.00044056
*CONN
*I *538:A2 I *D NAND3_X1
*I *513:B I *D MUX2_X1
*I *692:Q O *D DFF_X1
*CAP
1 *538:A2 5.4423e-05
2 *513:B 8.48237e-05
3 *692:Q 7.80217e-05
4 *379:8 0.000217269
5 *538:A2 *692:CK 0
6 *538:A2 *380:10 2.55331e-06
7 *379:8 *656:CK 0
8 *379:8 *657:CK 0
9 *379:8 *692:CK 0
10 *538:A1 *538:A2 2.75346e-06
11 *538:A3 *538:A2 7.16188e-07
*RES
1 *692:Q *379:8 12.8571 
2 *379:8 *513:B 24.0714 
3 *379:8 *538:A2 10.75 
*END

*D_NET *380 0.000665277
*CONN
*I *535:A2 I *D NAND3_X1
*I *513:A I *D MUX2_X1
*I *512:B I *D MUX2_X1
*I *693:Q O *D DFF_X1
*CAP
1 *535:A2 4.87505e-05
2 *513:A 4.90067e-05
3 *512:B 3.82513e-05
4 *693:Q 2.56934e-05
5 *380:12 0.000155602
6 *380:10 0.000142788
7 *512:B *608:A2 1.57159e-05
8 *513:A *692:CK 0
9 *513:A *405:334 4.9678e-06
10 *380:10 *692:CK 0
11 *380:10 *405:334 0
12 *380:12 *608:A2 2.22852e-05
13 *513:S *512:B 6.03486e-06
14 *513:S *513:A 5.01004e-05
15 *535:A1 *535:A2 2.75346e-06
16 *538:A1 *535:A2 7.16193e-06
17 *538:A2 *380:10 2.55331e-06
18 *538:A3 *535:A2 3.85541e-05
19 *538:A3 *380:10 1.49989e-05
20 *608:A3 *380:12 0
21 *693:D *512:B 2.67697e-05
22 *693:D *380:12 4.80378e-06
23 *132:70 *512:B 6.0887e-06
24 *132:70 *513:A 0
25 *156:58 *535:A2 2.39679e-06
*RES
1 *693:Q *380:10 13.1786 
2 *380:10 *380:12 8.39286 
3 *380:12 *512:B 16.25 
4 *380:12 *513:A 16.75 
5 *380:10 *535:A2 15.3571 
*END

*D_NET *381 0.000928288
*CONN
*I *532:A2 I *D NAND3_X1
*I *511:B I *D MUX2_X1
*I *512:A I *D MUX2_X1
*I *694:Q O *D DFF_X1
*CAP
1 *532:A2 7.60316e-05
2 *511:B 3.47846e-05
3 *512:A 7.86465e-05
4 *694:Q 0
5 *381:8 0.000178554
6 *381:6 0.000141154
7 *511:B *511:A 7.16188e-07
8 *511:B *405:323 0
9 *510:S *511:B 0
10 *609:A2 *532:A2 2.94435e-05
11 *694:D *511:B 2.25683e-05
12 *132:66 *512:A 1.66988e-05
13 *132:70 *512:A 5.96901e-05
14 *132:92 *511:B 6.07323e-06
15 *132:92 *512:A 4.79358e-06
16 *155:8 *512:A 2.01395e-05
17 *155:8 *532:A2 1.46625e-05
18 *155:8 *381:8 6.44921e-05
19 *155:19 *532:A2 1.55671e-05
20 *155:34 *532:A2 1.63647e-05
21 *155:38 *532:A2 5.06354e-05
22 *156:54 *532:A2 2.75346e-06
23 *156:56 *532:A2 5.06354e-05
24 *156:58 *532:A2 4.38826e-05
*RES
1 *694:Q *381:6 10 
2 *381:6 *381:8 9.07143 
3 *381:8 *512:A 19.8929 
4 *381:8 *511:B 14.25 
5 *381:6 *532:A2 23.0714 
*END

*D_NET *382 0.000592975
*CONN
*I *529:A2 I *D NAND3_X1
*I *510:B I *D MUX2_X1
*I *511:A I *D MUX2_X1
*I *695:Q O *D DFF_X1
*CAP
1 *529:A2 4.78943e-05
2 *510:B 0
3 *511:A 4.98762e-05
4 *695:Q 6.09339e-06
5 *382:14 0.000181334
6 *382:8 0.000185445
7 *511:A *510:A 1.21774e-06
8 *511:A *383:8 0
9 *511:A *405:323 0
10 *382:8 *405:321 0
11 *382:14 *510:A 5.7295e-06
12 *382:14 *405:321 6.74729e-06
13 *382:14 *405:323 0
14 *510:S *511:A 1.07733e-05
15 *511:B *511:A 7.16188e-07
16 *695:D *382:14 1.61988e-05
17 *155:47 *529:A2 3.85541e-05
18 *155:51 *529:A2 0
19 *155:51 *382:14 0
20 *156:50 *529:A2 2.39679e-06
21 *156:54 *529:A2 1.4491e-05
22 *156:54 *382:8 7.72537e-06
23 *167:10 *529:A2 1.77822e-05
*RES
1 *695:Q *382:8 10.75 
2 *382:8 *382:14 20.3929 
3 *382:14 *511:A 10.6786 
4 *382:14 *510:B 5 
5 *382:8 *529:A2 16.0357 
*END

*D_NET *383 0.000696785
*CONN
*I *509:B I *D MUX2_X1
*I *526:A2 I *D NAND3_X1
*I *510:A I *D MUX2_X1
*I *696:Q O *D DFF_X1
*CAP
1 *509:B 7.91543e-05
2 *526:A2 4.07498e-05
3 *510:A 5.75021e-05
4 *696:Q 1.96478e-05
5 *383:10 9.82519e-05
6 *383:8 9.88021e-05
7 *509:B *523:A2 3.18628e-05
8 *509:B *384:10 0
9 *509:B *385:14 2.87703e-06
10 *509:B *405:306 0
11 *509:B *405:321 0
12 *510:A *385:14 6.45916e-05
13 *510:A *405:321 8.88497e-06
14 *526:A2 *405:321 1.61249e-06
15 *383:8 *405:321 0
16 *510:S *510:A 2.75346e-06
17 *511:A *510:A 1.21774e-06
18 *511:A *383:8 0
19 *523:A3 *509:B 4.32144e-07
20 *526:A3 *526:A2 7.19036e-06
21 *155:57 *509:B 2.75402e-05
22 *155:57 *526:A2 1.43544e-05
23 *155:57 *383:8 1.32323e-05
24 *156:16 *509:B 2.16072e-07
25 *156:20 *509:B 8.13236e-05
26 *156:35 *509:B 1.24188e-05
27 *156:35 *526:A2 9.74015e-06
28 *156:50 *526:A2 1.66988e-05
29 *382:14 *510:A 5.7295e-06
*RES
1 *696:Q *383:8 8.17857 
2 *383:8 *383:10 5 
3 *383:10 *510:A 19.0357 
4 *383:10 *526:A2 14.8929 
5 *383:8 *509:B 26.5357 
*END

*D_NET *384 0.000379785
*CONN
*I *508:B I *D MUX2_X1
*I *523:A2 I *D NAND3_X1
*I *509:A I *D MUX2_X1
*I *697:Q O *D DFF_X1
*CAP
1 *508:B 0
2 *523:A2 4.28634e-05
3 *509:A 0
4 *697:Q 3.58423e-05
5 *384:14 7.28554e-05
6 *384:10 6.58342e-05
7 *523:A2 *385:14 3.09143e-06
8 *523:A2 *385:20 4.37453e-05
9 *523:A2 *405:295 0
10 *523:A2 *405:306 0
11 *384:14 *385:20 3.18707e-05
12 *384:14 *405:295 0
13 *509:B *523:A2 3.18628e-05
14 *509:B *384:10 0
15 *509:S *523:A2 0
16 *509:S *384:10 2.37093e-06
17 *523:A3 *523:A2 2.39679e-06
18 *697:D *384:10 2.31008e-05
19 *697:D *384:14 0
20 *132:115 *384:10 1.21356e-05
21 *156:20 *523:A2 1.18149e-05
*RES
1 *697:Q *384:10 9.92857 
2 *384:10 *384:14 9.32143 
3 *384:14 *509:A 10 
4 *384:14 *523:A2 16.75 
5 *384:10 *508:B 5 
*END

*D_NET *385 0.00124706
*CONN
*I *520:A2 I *D NAND3_X1
*I *508:A I *D MUX2_X1
*I *505:A2 I *D NAND2_X1
*I *698:Q O *D DFF_X1
*CAP
1 *520:A2 3.08037e-05
2 *508:A 0
3 *505:A2 0.000114352
4 *698:Q 0.000152902
5 *385:20 0.000215462
6 *385:14 0.000284815
7 *505:A2 *405:49 1.28122e-06
8 *505:A2 *405:59 1.50098e-05
9 *385:14 *696:CK 1.40196e-06
10 *385:14 *698:CK 0
11 *507:A *505:A2 7.77959e-06
12 *508:S *385:20 8.26038e-06
13 *509:B *385:14 2.87703e-06
14 *509:S *385:14 0
15 *510:A *385:14 6.45916e-05
16 *510:S *385:14 5.79089e-05
17 *520:A3 *520:A2 2.39679e-06
18 *520:A3 *385:14 6.48216e-07
19 *523:A1 *520:A2 1.84554e-05
20 *523:A1 *385:20 6.30856e-06
21 *523:A2 *385:14 3.09143e-06
22 *523:A2 *385:20 4.37453e-05
23 *523:A3 *385:14 4.32144e-07
24 *527:A1 *520:A2 0
25 *132:92 *385:14 2.86475e-06
26 *132:108 *505:A2 2.75346e-06
27 *132:115 *505:A2 0.000152522
28 *132:115 *385:20 1.32323e-05
29 *155:57 *520:A2 2.39679e-06
30 *156:16 *385:14 6.99155e-06
31 *156:20 *385:20 1.90574e-06
32 *384:14 *385:20 3.18707e-05
*RES
1 *698:Q *385:14 29.3572 
2 *385:14 *385:20 18.7143 
3 *385:20 *505:A2 20.6786 
4 *385:20 *508:A 5 
5 *385:14 *520:A2 14.2143 
*END

*D_NET *386 0.000631285
*CONN
*I *506:A I *D INV_X1
*I *608:A2 I *D NAND3_X1
*I *699:Q O *D DFF_X1
*CAP
1 *506:A 7.64482e-06
2 *608:A2 0.000206222
3 *699:Q 8.71307e-06
4 *386:6 0.000222579
5 *608:A2 *405:323 0
6 *608:A2 *405:334 0
7 *507:A *386:6 0
8 *512:B *608:A2 1.57159e-05
9 *512:S *608:A2 0
10 *513:S *608:A2 0
11 *516:A1 *608:A2 3.06715e-05
12 *538:A3 *608:A2 1.86809e-06
13 *608:A1 *608:A2 2.39679e-06
14 *608:A3 *608:A2 6.32202e-06
15 *132:36 *608:A2 0
16 *132:55 *608:A2 7.9406e-06
17 *152:8 *608:A2 1.72426e-05
18 *155:8 *608:A2 8.16836e-05
19 *380:12 *608:A2 2.22852e-05
*RES
1 *699:Q *386:6 5.92857 
2 *386:6 *608:A2 43.7143 
3 *386:6 *506:A 5.75 
*END
